!   File created by MacMolPlt 7.4.3
 $CONTRL SCFTYP=UHF RUNTYP=OPTIMIZE MAXIT=200 MULT=2 ISPHER=1 COORD=ZMT NZVAR=6 
    NOSYM=1 $END
 $SYSTEM TIMLIM=525600 MEMORY=524288000 $END
 $BASIS GBASIS=N31 NGAUSS=6 NDFUNC=1 $END
 $SCF DIRSCF=.TRUE. $END
 $STATPT OPTTOL=0.0001 NSTEP=20 $END
 $DATA 
CS HCO2 data
C1
C
O  1    1.21399
O   1    1.34300  2 121.6405
H   1    1.09901  2 116.2198  3 180.0000
 $END
 $ZMAT IZMAT(1)=1,2,1, 1,3,1, 2,3,1,2, 1,4,1, 2,4,1,2, 3,4,1,2,3 $END
