!   File created by MacMolPlt 7.4.3
 $CONTRL SCFTYP=MCSCF RUNTYP=ENERGY EXETYP=RUN MPLEVL=2 MAXIT=30 MULT=2 
    ISPHER=1 COORD=ZMT NOSYM=1 $END
 $SYSTEM TIMLIM=525600 MEMORY=1000000000 PARALL=.TRUE. $END
 $DET NCORE=3 NACT=13 NELS=17 $END
 $BASIS GBASIS=ACCD $END
 $GUESS GUESS=MOREAD NORB=78 $END
 $MCSCF MAXIT=200 $END
 $DATA 
CS HCO2 data
C1
C
O  1    1.21528
O   1    1.34300  2 121.4688
H   1    1.09936  3 111.4835  2 180.0000
 $END
 $VEC   
 1  1-1.19403625E-04-3.88784548E-04 1.09632604E-02-2.63526175E-04 9.69705558E-04
 1  2 0.00000000E+00-6.64593886E-03 4.15757990E-03 0.00000000E+00-2.20431553E-04
 1  3 4.64316274E-04-2.43884721E-04 5.27490304E-04 0.00000000E+00 0.00000000E+00
 1  4 3.93415724E-03-2.19039541E-04-7.16038851E-05 0.00000000E+00 1.99378293E-03
 1  5-7.46247854E-04-1.24753507E-03-2.59744948E-03 0.00000000E+00 0.00000000E+00
 1  6 1.24286638E-02-1.55461612E-05-9.57705052E-04 3.87236792E-04-3.45500895E-04
 1  7 0.00000000E+00 1.48705778E-03 1.44945086E-04 0.00000000E+00-1.06951877E-04
 1  8 9.66645449E-05 1.02873321E-05-4.51773681E-05 0.00000000E+00 0.00000000E+00
 1  9-9.02042656E-05-3.38580554E-04 9.61891924E-05 0.00000000E+00-4.03692098E-04
 1 10 2.25104932E-05 3.81181605E-04-3.14913716E-05 0.00000000E+00 0.00000000E+00
 1 11 1.00110351E+00-1.58153316E-02-3.31353940E-02 7.50908552E-03-3.80089099E-03
 1 12 0.00000000E+00-5.01303440E-04 5.55981794E-05 0.00000000E+00 7.35581102E-05
 1 13-1.89316871E-04 1.15758761E-04-2.19851449E-04 0.00000000E+00 0.00000000E+00
 1 14-7.73069834E-03-1.28299196E-03 4.02636602E-04 0.00000000E+00-4.78142777E-04
 1 15 2.47950499E-04 2.30192278E-04 5.66141571E-04 0.00000000E+00 0.00000000E+00
 1 16-1.87226592E-03-2.53603520E-04 1.18402796E-04-5.96909456E-04 0.00000000E+00
 1 17-9.61033079E-04-5.15187447E-04-2.02930487E-04 0.00000000E+00
 2  1 7.15099992E-04 3.30389699E-04 1.03036267E-02-2.72071941E-04-2.58778384E-04
 2  2-0.00000000E+00 6.49476630E-03 5.91240561E-03-0.00000000E+00-6.93886241E-04
 2  3 5.10493356E-04 1.83392885E-04-1.20425687E-03-0.00000000E+00-0.00000000E+00
 2  4 4.40640166E-03 6.58985539E-05 9.00339620E-05-0.00000000E+00 1.52031575E-03
 2  5-3.34237196E-04-1.18607856E-03 3.63339385E-03-0.00000000E+00-0.00000000E+00
 2  6 1.00116879E+00-1.84110652E-02-3.83494564E-02-8.95153138E-03-5.80429601E-03
 2  7-0.00000000E+00-7.87013668E-04-1.22254259E-03-0.00000000E+00 1.35495910E-04
 2  8 4.84725786E-05-1.83968489E-04 1.71365711E-04-0.00000000E+00-0.00000000E+00
 2  9-1.03380493E-02 1.56453140E-03 4.94862220E-04-0.00000000E+00-2.76812349E-04
 2 10 1.52906996E-04 1.23905353E-04-2.26139264E-04-0.00000000E+00-0.00000000E+00
 2 11-1.22680771E-02 9.39427332E-04 9.93774905E-04-1.68736123E-04 1.05849213E-03
 2 12-0.00000000E+00-8.61271233E-04 1.03157854E-03-0.00000000E+00-9.12506986E-05
 2 13 7.49234198E-05 1.63272787E-05 3.62296340E-05-0.00000000E+00-0.00000000E+00
 2 14 5.86602277E-04 6.92635913E-04 2.23237880E-04-0.00000000E+00-3.58144212E-04
 2 15 3.77013213E-05 3.20442891E-04-2.89312657E-05-0.00000000E+00-0.00000000E+00
 2 16-3.87136376E-04 2.26376290E-03-2.76102939E-04-3.88307534E-04-0.00000000E+00
 2 17-9.10834712E-04 1.70019808E-03 6.62938889E-04-0.00000000E+00
 3  1 1.00352922E+00-2.03953365E-03-1.43156617E-02 1.09912351E-03 1.12756524E-02
 3  2 0.00000000E+00-2.42115518E-04 8.02683344E-03 0.00000000E+00 1.30868499E-03
 3  3-2.67943627E-04-1.04074136E-03-5.26322257E-05 0.00000000E+00 0.00000000E+00
 3  4-2.73884414E-03 3.15377003E-05 1.81865655E-03 0.00000000E+00 9.49875798E-06
 3  5-7.15580127E-04 7.06081369E-04-8.57372391E-04 0.00000000E+00 0.00000000E+00
 3  6 1.83211039E-04 4.48364372E-04-1.88981122E-03-2.55169216E-04-1.14741334E-03
 3  7 0.00000000E+00 2.69151230E-03 1.80700039E-04 0.00000000E+00 2.90036131E-04
 3  8-1.72763942E-04-1.17272189E-04 2.02925242E-04 0.00000000E+00 0.00000000E+00
 3  9-3.22438693E-04 1.67976122E-04-1.13622714E-03 0.00000000E+00-9.38576750E-04
 3 10 8.68951567E-05 8.51681593E-04-1.27924984E-03 0.00000000E+00 0.00000000E+00
 3 11 8.33235808E-04-1.22797953E-03-4.43066861E-03 1.40297293E-03 1.15515725E-03
 3 12 0.00000000E+00-1.71763839E-03 1.61847902E-03 0.00000000E+00 5.06146500E-05
 3 13-1.46338700E-04 9.57240501E-05 2.20523971E-04 0.00000000E+00 0.00000000E+00
 3 14-1.85899505E-03-2.77598316E-04-5.02838397E-04 0.00000000E+00-9.61103385E-04
 3 15 1.05727654E-04 8.55375731E-04 1.29036662E-03 0.00000000E+00 0.00000000E+00
 3 16-1.31144274E-02 5.86245484E-03-1.55534020E-05-1.58498548E-03 0.00000000E+00
 3 17 1.29670648E-03-3.25977959E-05 2.75630107E-03 0.00000000E+00
 4  1 3.45477513E-04 2.42572828E-01 4.15047110E-02 3.52405728E-02 1.03701262E-01
 4  2 0.00000000E+00 1.14742936E-02-5.21280600E-02 0.00000000E+00 2.85905869E-02
 4  3-1.23969064E-02-1.61936805E-02 7.32439779E-03 0.00000000E+00 0.00000000E+00
 4  4-1.72734096E-02 3.09424472E-03-8.74134511E-03 0.00000000E+00-1.36101439E-02
 4  5-2.04282810E-03 1.56529720E-02-7.06363155E-03 0.00000000E+00 0.00000000E+00
 4  6 1.77600058E-02 3.02573156E-01 3.16715234E-01-8.89494300E-02-4.74870207E-02
 4  7 0.00000000E+00-3.45424688E-02-7.30207035E-03 0.00000000E+00 9.08692573E-03
 4  8-2.52819056E-03-6.55873518E-03 9.75716120E-03 0.00000000E+00 0.00000000E+00
 4  9 2.34597640E-02 1.09356933E-03 5.18807220E-03 0.00000000E+00 1.61420764E-03
 4 10-3.10516026E-03 1.49095262E-03-5.69944363E-03 0.00000000E+00 0.00000000E+00
 4 11 1.54507719E-02 2.71170422E-01 3.06548352E-01 6.87213385E-02-2.88900192E-02
 4 12 0.00000000E+00 4.75999027E-02-1.74261817E-02 0.00000000E+00 7.65396324E-03
 4 13-3.20618661E-03-4.44777662E-03-6.00338677E-03 0.00000000E+00 0.00000000E+00
 4 14 3.70239162E-02 1.12789624E-03 1.11448216E-03 0.00000000E+00 7.16602616E-03
 4 15-4.19929553E-03-2.96673064E-03-2.40750299E-03 0.00000000E+00 0.00000000E+00
 4 16 4.79810838E-02-4.38029457E-02 2.11979832E-03 1.32207269E-02 0.00000000E+00
 4 17 5.68389832E-05-8.29791797E-03-1.42074007E-02 0.00000000E+00
 5  1 3.61096243E-03-2.05395621E-02-4.97068084E-02-2.20784560E-01-2.15685546E-02
 5  2 0.00000000E+00 2.93925917E-02-6.82641875E-04 0.00000000E+00 5.63464821E-03
 5  3-6.40411039E-03 7.69462181E-04-4.16437258E-02 0.00000000E+00 0.00000000E+00
 5  4-1.95491499E-02-6.31174763E-04 1.74839112E-03 0.00000000E+00-2.51659922E-03
 5  5-7.37009630E-04 3.25360885E-03 3.60156394E-02 0.00000000E+00 0.00000000E+00
 5  6-1.98348486E-02-2.96000179E-01-3.08739782E-01 4.84375361E-02 4.96581055E-02
 5  7 0.00000000E+00-2.85047643E-03 8.40019616E-03 0.00000000E+00-3.35908212E-03
 5  8-1.56166305E-03 4.92074516E-03-8.26717963E-03 0.00000000E+00 0.00000000E+00
 5  9-2.10243241E-02 4.81510795E-03-4.46098946E-03 0.00000000E+00 9.33403072E-03
 5 10-3.59863568E-03-5.73539504E-03 5.32798088E-03 0.00000000E+00 0.00000000E+00
 5 11 2.18954050E-02 3.59052458E-01 4.10993839E-01 4.41208814E-02-3.35438933E-02
 5 12 0.00000000E+00 2.36028544E-02-1.74726323E-02 0.00000000E+00 3.76344200E-03
 5 13-2.74814714E-04-3.48862729E-03-6.07917459E-03 0.00000000E+00 0.00000000E+00
 5 14 4.79231914E-02 9.50558807E-03 4.90532956E-04 0.00000000E+00-4.38350153E-03
 5 15 5.41972797E-04 3.84152873E-03-2.74743055E-03 0.00000000E+00 0.00000000E+00
 5 16 7.46288842E-03 1.30715159E-02-5.37947067E-03 2.71695413E-03 0.00000000E+00
 5 17 5.09384920E-03 1.46256529E-02 4.69283755E-03 0.00000000E+00
 6  1 1.91708028E-02 3.22435111E-01 1.77460776E-01-4.07441406E-02-1.55364963E-01
 6  2 0.00000000E+00 1.99304039E-03-1.85891642E-02 0.00000000E+00 4.41579286E-03
 6  3 3.06226069E-03-7.47805354E-03-8.51417786E-04 0.00000000E+00 0.00000000E+00
 6  4 8.54450010E-03 1.50763368E-03-8.32331159E-03 0.00000000E+00 3.98683340E-03
 6  5-1.12312481E-02 7.24441474E-03 3.49175469E-03 0.00000000E+00 0.00000000E+00
 6  6-1.67085196E-02-1.62829955E-01-2.31633526E-01-1.20074165E-01-1.46126244E-01
 6  7 0.00000000E+00-6.43638811E-02-7.65562424E-02 0.00000000E+00 1.38326495E-03
 6  8 1.86067299E-03-3.24393794E-03 8.12502683E-03 0.00000000E+00 0.00000000E+00
 6  9-4.76115483E-02 5.07604887E-03 8.96049595E-03 0.00000000E+00 2.55791404E-03
 6 10 1.44161490E-03-3.99952894E-03 9.96505226E-03 0.00000000E+00 0.00000000E+00
 6 11-1.47233776E-02-1.59244372E-01-2.16589407E-01 1.87187554E-01-1.48287227E-01
 6 12 0.00000000E+00 1.03603024E-01-8.12496933E-02 0.00000000E+00 4.83464947E-03
 6 13 2.08683089E-04-5.04333256E-03-9.59993723E-03 0.00000000E+00 0.00000000E+00
 6 14-2.51217857E-02 3.64842703E-04 8.06019645E-03 0.00000000E+00 4.34751831E-03
 6 15 2.85186874E-03-7.19938705E-03-1.11292934E-02 0.00000000E+00 0.00000000E+00
 6 16 2.78301189E-01 1.04217654E-01 1.36135979E-03 2.84274275E-02 0.00000000E+00
 6 17-2.68798197E-03 2.63606951E-03 1.98943294E-02 0.00000000E+00
 7  1-8.88050719E-03 4.14509859E-02 9.38577661E-02-1.84792722E-01 3.37736467E-01
 7  2 0.00000000E+00-3.21923983E-02 2.65457179E-02 0.00000000E+00 1.19722912E-02
 7  3-2.63114902E-04-1.17091763E-02-1.73078605E-02 0.00000000E+00 0.00000000E+00
 7  4 3.20176356E-02 6.98411506E-04-2.68385406E-03 0.00000000E+00 3.61570917E-03
 7  5-3.41169082E-03-2.04018347E-04 3.31906051E-03 0.00000000E+00 0.00000000E+00
 7  6-3.78845943E-04-1.83575191E-02-4.08208340E-02-1.67535561E-01 1.87517295E-01
 7  7 0.00000000E+00-9.46585329E-02 1.20807705E-01 0.00000000E+00 1.22903689E-02
 7  8-1.10890543E-02-1.20131459E-03-4.15829311E-03 0.00000000E+00 0.00000000E+00
 7  9-1.07002844E-02-7.87998995E-03 6.03902667E-03 0.00000000E+00 1.06468891E-02
 7 10-1.35840333E-02 2.93714416E-03-9.00902535E-03 0.00000000E+00 0.00000000E+00
 7 11-1.43036187E-02-1.04844431E-01-1.83949250E-01 3.82355156E-01-1.15864494E-01
 7 12 0.00000000E+00 2.09773543E-01-5.60319882E-02 0.00000000E+00 1.44297808E-02
 7 13-6.74122800E-03-7.68855281E-03-8.21403124E-03 0.00000000E+00 0.00000000E+00
 7 14-4.38376546E-02 7.01086825E-03-4.02240417E-03 0.00000000E+00 6.34244704E-03
 7 15-5.15644325E-03-1.18600378E-03 1.65247210E-03 0.00000000E+00 0.00000000E+00
 7 16-2.19930450E-01-1.72217359E-01-3.92065093E-03-1.68322656E-02 0.00000000E+00
 7 17-9.84453454E-03-4.60450853E-03-4.69924222E-02 0.00000000E+00
 8  1-7.37555310E-04-7.15793403E-02-1.12378354E-01-3.29160324E-01-2.01239837E-01
 8  2 0.00000000E+00-5.89700370E-02-1.83896289E-02 0.00000000E+00 3.03138418E-04
 8  3-3.89057182E-03 3.58743340E-03-2.91369759E-02 0.00000000E+00 0.00000000E+00
 8  4-5.34366744E-02-6.23099584E-03 4.39624520E-04 0.00000000E+00-2.11790233E-03
 8  5 8.06846106E-04 1.31105623E-03 2.94010475E-03 0.00000000E+00 0.00000000E+00
 8  6 2.15372676E-02 1.44009092E-01 2.96878438E-01 4.12592058E-01 2.43573269E-01
 8  7 0.00000000E+00 1.90725273E-01 1.06024207E-01 0.00000000E+00-1.31895181E-02
 8  8 2.19558680E-03 1.09939313E-02-1.75265939E-02 0.00000000E+00 0.00000000E+00
 8  9 1.21608900E-01-1.37901793E-03-3.33758831E-03 0.00000000E+00 3.93072105E-03
 8 10-8.36190432E-04-3.09453062E-03 4.42276230E-03 0.00000000E+00 0.00000000E+00
 8 11-6.90674094E-03-4.32778032E-02-7.24696321E-02 1.28157531E-01-1.89349826E-01
 8 12 0.00000000E+00 6.91511714E-02-1.16184090E-01 0.00000000E+00 2.26464643E-04
 8 13 3.40136619E-03-3.62783083E-03-9.01051594E-03 0.00000000E+00 0.00000000E+00
 8 14-2.34105505E-02-3.44498149E-04 3.55819600E-04 0.00000000E+00-6.42117215E-03
 8 15 8.93070571E-03-2.50953356E-03-8.77857362E-03 0.00000000E+00 0.00000000E+00
 8 16 1.19832298E-01 9.68272648E-02-5.84593931E-03 1.01828343E-02 0.00000000E+00
 8 17 1.23843435E-02-4.98059794E-03 2.57790825E-02 0.00000000E+00
 9  1 0.00000000E+00 0.00000000E+00 0.00000000E+00 0.00000000E+00 0.00000000E+00
 9  2 2.94705125E-01 0.00000000E+00 0.00000000E+00 1.11194476E-01 0.00000000E+00
 9  3 0.00000000E+00 0.00000000E+00 0.00000000E+00-9.63324573E-03 2.16748236E-02
 9  4 0.00000000E+00 0.00000000E+00 0.00000000E+00 2.03538198E-03 0.00000000E+00
 9  5 0.00000000E+00 0.00000000E+00 0.00000000E+00 8.24068845E-04-2.14422163E-02
 9  6 0.00000000E+00 0.00000000E+00 0.00000000E+00 0.00000000E+00 0.00000000E+00
 9  7 2.47853477E-01 0.00000000E+00 0.00000000E+00 1.52497824E-01 0.00000000E+00
 9  8 0.00000000E+00 0.00000000E+00 0.00000000E+00-1.24885615E-02-7.95495117E-03
 9  9 0.00000000E+00 0.00000000E+00 0.00000000E+00 8.37299507E-03 0.00000000E+00
 9 10 0.00000000E+00 0.00000000E+00 0.00000000E+00-1.63508724E-02-8.15382130E-03
 9 11 0.00000000E+00 0.00000000E+00 0.00000000E+00 0.00000000E+00 0.00000000E+00
 9 12 4.88001993E-01 0.00000000E+00 0.00000000E+00 3.29688991E-01 0.00000000E+00
 9 13 0.00000000E+00 0.00000000E+00 0.00000000E+00 1.43892721E-02-7.61450345E-03
 9 14 0.00000000E+00 0.00000000E+00 0.00000000E+00 2.92510111E-02 0.00000000E+00
 9 15 0.00000000E+00 0.00000000E+00 0.00000000E+00 2.33842930E-02-1.25188866E-02
 9 16 0.00000000E+00 0.00000000E+00 0.00000000E+00 0.00000000E+00 8.96230576E-03
 9 17 0.00000000E+00 0.00000000E+00 0.00000000E+00-1.12153132E-02
10  1 0.00000000E+00 0.00000000E+00 0.00000000E+00 0.00000000E+00 0.00000000E+00
10  2 1.92652529E-01 0.00000000E+00 0.00000000E+00 1.01819527E-01 0.00000000E+00
10  3 0.00000000E+00 0.00000000E+00 0.00000000E+00 5.34929916E-02 1.31207113E-02
10  4 0.00000000E+00 0.00000000E+00 0.00000000E+00 8.28892253E-03 0.00000000E+00
10  5 0.00000000E+00 0.00000000E+00 0.00000000E+00-1.15812214E-03-5.76405811E-03
10  6 0.00000000E+00 0.00000000E+00 0.00000000E+00 0.00000000E+00 0.00000000E+00
10  7 4.78324541E-01 0.00000000E+00 0.00000000E+00 3.21500191E-01 0.00000000E+00
10  8 0.00000000E+00 0.00000000E+00 0.00000000E+00-1.53802349E-02-1.01360566E-02
10  9 0.00000000E+00 0.00000000E+00 0.00000000E+00 4.17850741E-02 0.00000000E+00
10 10 0.00000000E+00 0.00000000E+00 0.00000000E+00-1.82701215E-02-1.06177323E-02
10 11 0.00000000E+00 0.00000000E+00 0.00000000E+00 0.00000000E+00 0.00000000E+00
10 12-4.02736917E-01 0.00000000E+00 0.00000000E+00-2.92558521E-01 0.00000000E+00
10 13 0.00000000E+00 0.00000000E+00 0.00000000E+00-3.78016109E-03 2.51204586E-03
10 14 0.00000000E+00 0.00000000E+00 0.00000000E+00-4.96725242E-02 0.00000000E+00
10 15 0.00000000E+00 0.00000000E+00 0.00000000E+00-7.34330918E-03 7.08906644E-03
10 16 0.00000000E+00 0.00000000E+00 0.00000000E+00 0.00000000E+00 6.62622657E-03
10 17 0.00000000E+00 0.00000000E+00 0.00000000E+00-7.81499220E-03
11  1 4.84497948E-03 1.97764865E-02 6.26408074E-02 1.59303565E-02-1.08210339E-01
11  2 0.00000000E+00 8.40916653E-03-3.90931299E-02 0.00000000E+00-7.60296370E-02
11  3 7.03131798E-02 5.71645712E-03 3.80014732E-02 0.00000000E+00 0.00000000E+00
11  4 1.73652659E-02 6.84648605E-03-2.08228612E-02 0.00000000E+00-2.13108000E-02
11  5 2.38809267E-02-2.57012678E-03 3.84589624E-03 0.00000000E+00 0.00000000E+00
11  6-1.39882039E-03-1.21528586E-02-9.21825296E-03-2.48127375E-01 5.00523444E-01
11  7 0.00000000E+00-1.80697777E-01 3.28714946E-01 0.00000000E+00 7.23917691E-03
11  8-8.09294524E-03 8.53768329E-04-6.80642365E-03 0.00000000E+00 0.00000000E+00
11  9 7.20186313E-03-4.04708218E-02 6.94497389E-02 0.00000000E+00 8.72227668E-03
11 10-5.58484275E-03-3.13743393E-03-2.07628066E-03 0.00000000E+00 0.00000000E+00
11 11 3.59674361E-03-2.84020389E-02-2.46610593E-02-1.54733985E-01 1.76363371E-01
11 12 0.00000000E+00-1.00123133E-01 1.08055423E-01 0.00000000E+00-2.53612979E-03
11 13 1.30311943E-03 1.23301036E-03 4.32975645E-03 0.00000000E+00 0.00000000E+00
11 14 2.60254901E-02-9.94435558E-03 1.53185136E-02 0.00000000E+00-4.76006124E-03
11 15 6.09765515E-03-1.33759391E-03-4.42296828E-04 0.00000000E+00 0.00000000E+00
11 16 2.16560092E-01 1.18390252E-01 1.33109270E-03 3.55626098E-03 0.00000000E+00
11 17-6.88161998E-04-1.36874883E-02-2.51642374E-03 0.00000000E+00
12  1-1.88461750E-03 9.71527354E-03 1.25743720E-02-1.86594016E-02-6.07238654E-02
12  2 0.00000000E+00-2.89594219E-02-6.76784098E-02 0.00000000E+00-2.31990824E-02
12  3 1.90816482E-02 4.11743416E-03-3.16522297E-02 0.00000000E+00 0.00000000E+00
12  4-3.24801285E-02-3.32758032E-03 1.97315323E-05 0.00000000E+00 2.00644170E-02
12  5-2.02012517E-02 1.36834692E-04 5.31314575E-02 0.00000000E+00 0.00000000E+00
12  6-3.98448359E-04-2.09318169E-02-1.16794976E-02 2.05996121E-01-7.19470535E-02
12  7 0.00000000E+00 9.26597348E-02-4.64133414E-02 0.00000000E+00-5.76341447E-03
12  8 3.92569890E-03 1.83771557E-03-1.81096404E-03 0.00000000E+00 0.00000000E+00
12  9 2.77111321E-02-4.18290078E-05-7.20254534E-03 0.00000000E+00-4.22945318E-03
12 10 7.26031833E-03-3.03086515E-03 2.97879046E-03 0.00000000E+00 0.00000000E+00
12 11-2.66584413E-04 1.98562833E-03 1.07592968E-02 3.41523656E-01 5.70374928E-01
12 12 0.00000000E+00 2.28300591E-01 3.92757884E-01 0.00000000E+00 9.34921697E-03
12 13-8.55209989E-03-7.97117083E-04 6.83920376E-03 0.00000000E+00 0.00000000E+00
12 14 2.81528896E-02 2.49995279E-02 2.41393778E-02 0.00000000E+00 2.12685372E-02
12 15-2.17817782E-02 5.13240981E-04 1.49010247E-02 0.00000000E+00 0.00000000E+00
12 16 8.54503403E-02 1.49352531E-02-1.29540495E-03 6.32794243E-03 0.00000000E+00
12 17 1.13335518E-02 4.76936792E-02-1.27033485E-02 0.00000000E+00
13  1 0.00000000E+00 0.00000000E+00 0.00000000E+00 0.00000000E+00 0.00000000E+00
13  2-5.99790125E-01 0.00000000E+00 0.00000000E+00-2.71012942E-01 0.00000000E+00
13  3 0.00000000E+00 0.00000000E+00 0.00000000E+00-1.62804953E-02-2.55288214E-02
13  4 0.00000000E+00 0.00000000E+00 0.00000000E+00 8.51415920E-03 0.00000000E+00
13  5 0.00000000E+00 0.00000000E+00 0.00000000E+00-1.53209261E-02-2.96024377E-03
13  6 0.00000000E+00 0.00000000E+00 0.00000000E+00 0.00000000E+00 0.00000000E+00
13  7 6.45095579E-01 0.00000000E+00 0.00000000E+00 5.50433034E-02 0.00000000E+00
13  8 0.00000000E+00 0.00000000E+00 0.00000000E+00 5.90728738E-03 3.12796182E-03
13  9 0.00000000E+00 0.00000000E+00 0.00000000E+00-3.46428010E-02 0.00000000E+00
13 10 0.00000000E+00 0.00000000E+00 0.00000000E+00 3.24160761E-02 1.13704858E-02
13 11 0.00000000E+00 0.00000000E+00 0.00000000E+00 0.00000000E+00 0.00000000E+00
13 12 3.15139145E-01 0.00000000E+00 0.00000000E+00 6.42786860E-02 0.00000000E+00
13 13 0.00000000E+00 0.00000000E+00 0.00000000E+00-7.86247757E-03 9.54429252E-04
13 14 0.00000000E+00 0.00000000E+00 0.00000000E+00 1.60694995E-04 0.00000000E+00
13 15 0.00000000E+00 0.00000000E+00 0.00000000E+00-2.25192274E-02 6.72413517E-03
13 16 0.00000000E+00 0.00000000E+00 0.00000000E+00 0.00000000E+00-1.75337189E-02
13 17 0.00000000E+00 0.00000000E+00 0.00000000E+00 9.69795866E-03
14  1-9.31419264E-02-4.71580116E-01-3.87380665E-01 4.95881954E-01-3.81742165E-01
14  2 0.00000000E+00 1.49882673E-01-1.06269263E-01 0.00000000E+00-3.21862623E-02
14  3 1.80979321E-02 1.40883302E-02 3.47685584E-02 0.00000000E+00 0.00000000E+00
14  4-8.65988847E-02 4.85794105E-03 7.69476753E-03 0.00000000E+00-2.49313784E-02
14  5 1.17055900E-02 1.32257885E-02 8.62890045E-03 0.00000000E+00 0.00000000E+00
14  6 8.98251604E-03 6.32509502E-02 7.50133469E-02-3.07474347E-01 1.55221942E-01
14  7 0.00000000E+00-1.38700705E-04-5.44498021E-02 0.00000000E+00-8.63570198E-03
14  8 1.10300492E-02-2.39434724E-03 1.05656188E-02 0.00000000E+00 0.00000000E+00
14  9 1.90090239E-02 1.72743377E-02-2.20825482E-02 0.00000000E+00-3.42682071E-02
14 10 3.23745950E-02 1.89361214E-03 1.21989167E-02 0.00000000E+00 0.00000000E+00
14 11 6.64722227E-02 3.02343452E-01 2.78062948E-01 6.39822184E-01-2.95817754E-01
14 12 0.00000000E+00 1.13294082E-01-2.66886984E-02 0.00000000E+00-8.86976639E-03
14 13 1.98060383E-02-1.09362719E-02 1.98860291E-02 0.00000000E+00 0.00000000E+00
14 14 1.29680290E-01 1.60943407E-02-5.92346067E-03 0.00000000E+00-2.35948365E-02
14 15 1.32824542E-02 1.03123823E-02 2.61183017E-02 0.00000000E+00 0.00000000E+00
14 16 6.98306220E-02 7.84550556E-02 1.26420305E-02-5.31677308E-04 0.00000000E+00
14 17 1.88749101E-02 6.25982048E-03 3.03257620E-02 0.00000000E+00
15  1 1.13880296E-01 4.85701791E-01 2.57136841E-01 2.76886672E-01 5.20576410E-02
15  2 0.00000000E+00 9.08202394E-02 4.21908535E-02 0.00000000E+00 1.71144090E-01
15  3-1.69883371E-01-1.26071927E-03-7.41534078E-02 0.00000000E+00 0.00000000E+00
15  4 3.38899105E-02-1.58819403E-02 5.51239720E-02 0.00000000E+00 7.94419005E-02
15  5-7.50129518E-02-4.42894875E-03 9.56545870E-05 0.00000000E+00 0.00000000E+00
15  6-2.11832703E-02-1.29619219E-01-2.45974262E-01 8.89662825E-02 8.14547191E-01
15  7 0.00000000E+00 2.27524578E-01-3.25840423E-01 0.00000000E+00-2.21533961E-02
15  8 2.28845764E-02-7.31180335E-04 7.77577241E-03 0.00000000E+00 0.00000000E+00
15  9-1.66584881E-01 9.59610835E-02-1.33958377E-01 0.00000000E+00-4.59372514E-02
15 10 4.92954666E-02-3.35821522E-03 5.90671803E-02 0.00000000E+00 0.00000000E+00
15 11-4.12508148E-03 1.62639803E-03-1.57200193E-02-9.90911967E-02 1.20166373E-01
15 12 0.00000000E+00 3.07919040E-02-3.39335618E-03 0.00000000E+00-2.92106151E-03
15 13-6.47184534E-03 9.39290684E-03-1.15785975E-02 0.00000000E+00 0.00000000E+00
15 14-6.96911994E-02 2.10377989E-02-2.03817571E-02 0.00000000E+00 1.19316661E-02
15 15-1.88859338E-02 6.95426766E-03-6.09539154E-03 0.00000000E+00 0.00000000E+00
15 16-2.25810782E-01-1.51453944E-01 1.43632334E-02 2.12976663E-02 0.00000000E+00
15 17 2.13664066E-03 4.19553519E-02 1.42183634E-02 0.00000000E+00
16  1 2.55407365E-02 1.41738246E-01 2.82574134E-01 7.25548434E-01 3.34076969E-01
16  2 0.00000000E+00 2.41722339E-01 7.52394218E-02 0.00000000E+00-1.46503941E-01
16  3 1.38469339E-01 8.03460187E-03 1.12338569E-01 0.00000000E+00 0.00000000E+00
16  4 1.11208350E-01 3.19890530E-02-4.22804239E-02 0.00000000E+00-4.31799227E-02
16  5 5.45781449E-02-1.13982222E-02 3.77923352E-02 0.00000000E+00 0.00000000E+00
16  6-9.19803735E-02-3.39809887E-01-2.84970171E-01 7.54158517E-01-7.80424153E-04
16  7 0.00000000E+00-9.46504985E-02 2.69452919E-01 0.00000000E+00 1.49935128E-02
16  8-9.26487302E-03-5.72863978E-03-2.53778135E-04 0.00000000E+00 0.00000000E+00
16  9-1.85982601E-01-3.60768222E-02 1.12857012E-01 0.00000000E+00 5.04193983E-02
16 10-2.82456500E-02-2.21737482E-02-9.09953399E-03 0.00000000E+00 0.00000000E+00
16 11 2.75969067E-02 7.77216847E-02 7.59725711E-02 1.30691307E-01-3.30473628E-01
16 12 0.00000000E+00-4.77537970E-02-7.30233194E-03 0.00000000E+00 9.92110958E-03
16 13 8.97831674E-04-1.08189413E-02 3.26658194E-02 0.00000000E+00 0.00000000E+00
16 14 1.09167884E-01-2.70926992E-03 1.27169137E-02 0.00000000E+00-2.62825986E-03
16 15-7.69935979E-04 3.39819584E-03 2.89746648E-02 0.00000000E+00 0.00000000E+00
16 16 7.92998895E-02 1.67988454E-02 1.45300489E-02-2.56069918E-02 0.00000000E+00
16 17-3.14594232E-02-2.02554197E-02-3.45959039E-02 0.00000000E+00
17  1-1.66447202E-02-1.70857251E-02 6.49242940E-01 1.69716268E-02-4.40471723E-02
17  2 0.00000000E+00-6.14289975E-04-1.16216049E-01 0.00000000E+00 5.37060094E-04
17  3 8.02518581E-03-8.56224590E-03 6.00884263E-03 0.00000000E+00 0.00000000E+00
17  4 4.38225347E+00-1.52380953E-01-9.86321704E-01 0.00000000E+00 3.98688021E-02
17  5 5.82711001E-02-9.81399022E-02 1.15273436E-02 0.00000000E+00 0.00000000E+00
17  6 4.41275978E-03 2.00702942E-02-3.80457540E-02 1.90520385E-02-2.07525763E-02
17  7 0.00000000E+00 5.09983489E-02 2.46657927E-02 0.00000000E+00-5.96482471E-04
17  8 2.11750795E-03-1.52102548E-03 1.62978908E-03 0.00000000E+00 0.00000000E+00
17  9-7.60188454E-01 1.93655798E-01 4.25184938E-01 0.00000000E+00-4.49749047E-03
17 10-9.05332399E-03 1.35508145E-02-1.44141081E-02 0.00000000E+00 0.00000000E+00
17 11 4.51091004E-03 1.82806265E-02-1.85516687E-02-3.49769953E-03-1.01969870E-02
17 12 0.00000000E+00-5.21413855E-02 1.28585746E-02 0.00000000E+00-7.94097480E-04
17 13 1.82381377E-03-1.02971629E-03-2.72903544E-04 0.00000000E+00 0.00000000E+00
17 14-7.12394279E-01-2.14096886E-01 2.90288420E-01 0.00000000E+00-9.44750366E-03
17 15-5.34786604E-04 9.98229026E-03 1.62544228E-02 0.00000000E+00 0.00000000E+00
17 16 5.25506460E-02-6.12304837E-01 3.10590041E-04-1.62120493E-03 0.00000000E+00
17 17-3.65120544E+00-2.70462401E-02-1.58727935E-01 0.00000000E+00
18  1 8.69095162E-04-1.33017249E-02-3.37273557E-01-2.27105945E-03 4.43538297E-02
18  2-0.00000000E+00-3.24056665E-01-7.53742011E-01-0.00000000E+00-2.09153278E-02
18  3 7.88673492E-03 1.30285929E-02-1.16158591E-02-0.00000000E+00-0.00000000E+00
18  4-1.98075108E+00-9.26362410E-01-1.94721090E+00-0.00000000E+00-9.76872960E-02
18  5 5.12028409E-02 4.64844551E-02-1.07732019E-01-0.00000000E+00-0.00000000E+00
18  6-9.70235987E-03 2.65785991E-02 3.14745575E-01 4.52737447E-02 1.85280578E-02
18  7-0.00000000E+00-1.80352201E-01-9.20612097E-02-0.00000000E+00 2.52306821E-03
18  8 1.00925278E-03-3.53232099E-03 2.94233819E-03-0.00000000E+00-0.00000000E+00
18  9 2.69826889E+00-3.88253272E-01 7.82288309E-02-0.00000000E+00 3.50759922E-02
18 10-2.26840280E-02-1.23919643E-02 1.60896605E-02-0.00000000E+00-0.00000000E+00
18 11-2.34271696E-03 1.35102634E-02 5.46721397E-02-6.39520492E-04 3.51763855E-02
18 12-0.00000000E+00 8.00125515E-02-5.16270053E-03-0.00000000E+00-3.15435706E-04
18 13 3.36908892E-05 2.81744817E-04 6.65043895E-04-0.00000000E+00-0.00000000E+00
18 14 7.93469291E-01 3.38259351E-01 2.54683592E-01-0.00000000E+00 3.99008803E-02
18 15-1.60504061E-02-2.38504743E-02-3.60755831E-03-0.00000000E+00-0.00000000E+00
18 16 1.70298874E-02-1.02979285E+00-6.29891180E-03-5.11910425E-03-0.00000000E+00
18 17-5.00990054E-01-4.48623477E-02-2.87528015E-01-0.00000000E+00
19  1-0.00000000E+00-0.00000000E+00-0.00000000E+00-0.00000000E+00-0.00000000E+00
19  2-1.13002242E-01-0.00000000E+00-0.00000000E+00-1.08729321E-01-0.00000000E+00
19  3-0.00000000E+00-0.00000000E+00-0.00000000E+00-2.47420457E-04-1.17729350E-02
19  4-0.00000000E+00-0.00000000E+00-0.00000000E+00 1.83651404E+00-0.00000000E+00
19  5-0.00000000E+00-0.00000000E+00-0.00000000E+00-9.95756782E-04-4.19449110E-05
19  6-0.00000000E+00-0.00000000E+00-0.00000000E+00-0.00000000E+00-0.00000000E+00
19  7-1.28823195E-02-0.00000000E+00-0.00000000E+00 3.90282698E-02-0.00000000E+00
19  8-0.00000000E+00-0.00000000E+00-0.00000000E+00 3.04397676E-03 8.14152950E-04
19  9-0.00000000E+00-0.00000000E+00-0.00000000E+00-6.01832207E-01-0.00000000E+00
19 10-0.00000000E+00-0.00000000E+00-0.00000000E+00 9.88698771E-03 7.49901404E-03
19 11-0.00000000E+00-0.00000000E+00-0.00000000E+00-0.00000000E+00-0.00000000E+00
19 12-2.80666212E-02-0.00000000E+00-0.00000000E+00 1.16027379E-02-0.00000000E+00
19 13-0.00000000E+00-0.00000000E+00-0.00000000E+00-3.31290745E-03 6.73554660E-04
19 14-0.00000000E+00-0.00000000E+00-0.00000000E+00-4.64996480E-01-0.00000000E+00
19 15-0.00000000E+00-0.00000000E+00-0.00000000E+00-8.85419444E-03 3.98165273E-03
19 16-0.00000000E+00-0.00000000E+00-0.00000000E+00-0.00000000E+00 1.00304414E-02
19 17-0.00000000E+00-0.00000000E+00-0.00000000E+00-1.08257136E-01
20  1-2.03491461E-03-2.39755628E-02 2.33705820E-02 1.28659492E-02 6.19202148E-02
20  2 0.00000000E+00 6.98259569E-01-2.81404567E-01 0.00000000E+00-1.73806846E-02
20  3 1.45257325E-02 2.85495205E-03 2.44260654E-02 0.00000000E+00 0.00000000E+00
20  4-2.18264279E-01 2.07939030E+00-1.09310518E+00 0.00000000E+00-3.44114005E-02
20  5 1.83641148E-02 1.60472857E-02 1.98274126E-01 0.00000000E+00 0.00000000E+00
20  6 2.72025152E-03-1.19116169E-02-1.77575077E-01-6.26047175E-03-2.09754837E-02
20  7 0.00000000E+00 5.21939995E-02 4.98430913E-02 0.00000000E+00-2.10525424E-03
20  8 7.91616134E-04 1.31363811E-03-9.69547336E-05 0.00000000E+00 0.00000000E+00
20  9-1.31668875E+00-1.54160264E-01 6.65573727E-01 0.00000000E+00 3.43141199E-02
20 10-2.20583018E-02-1.22558181E-02-2.12367207E-02 0.00000000E+00 0.00000000E+00
20 11-6.02194189E-03 2.40971432E-02 2.24511030E-01-6.54661571E-02-1.06055023E-02
20 12 0.00000000E+00 1.44041267E-01-8.83037258E-02 0.00000000E+00 8.38752836E-04
20 13 1.23345580E-03-2.07220864E-03 1.56350661E-03 0.00000000E+00 0.00000000E+00
20 14 2.55075366E+00 3.99070689E-01-1.55451791E-01 0.00000000E+00 3.37960523E-02
20 15-2.12458793E-02-1.25501730E-02-1.57056451E-02 0.00000000E+00 0.00000000E+00
20 16 3.17652583E-02-4.56702996E-01 4.36322048E-03-9.34534870E-03 0.00000000E+00
20 17-6.09620202E-01-5.70330582E-02-1.98793573E-01 0.00000000E+00
21  1-5.00814099E-02-1.36906922E-01 1.85833114E+00-1.76697905E-02 1.21240842E-01
21  2-0.00000000E+00-1.17320336E-01-4.24337427E-01-0.00000000E+00 9.22259657E-04
21  3-1.05722854E-04-8.16536803E-04-3.59652044E-03-0.00000000E+00-0.00000000E+00
21  4 9.75235702E+00-3.44065638E-01-2.07468973E+00-0.00000000E+00-1.29033058E-01
21  5 3.43069076E-01-2.14036018E-01 3.01348946E-02-0.00000000E+00-0.00000000E+00
21  6 3.91778594E-03-1.44363428E-02-9.10087344E-02-3.42792999E-02 2.33283065E-02
21  7-0.00000000E+00 1.23315553E-01 1.91731757E-02-0.00000000E+00 3.79764420E-03
21  8-3.17434140E-03-6.23302794E-04-2.67109698E-03-0.00000000E+00-0.00000000E+00
21  9-2.15354934E+00 5.79030265E-01 3.90489673E-01-0.00000000E+00-4.70410499E-02
21 10 4.55060436E-03 4.24904456E-02-1.90640374E-02-0.00000000E+00-0.00000000E+00
21 11 1.19008712E-03-2.67766128E-02-7.97571176E-02 2.81786813E-02 1.90387033E-02
21 12-0.00000000E+00-9.93165227E-02 3.55129949E-02-0.00000000E+00 3.97728246E-03
21 13-3.50149786E-03-4.75784596E-04 8.12003009E-04-0.00000000E+00-0.00000000E+00
21 14-2.16854323E+00-5.69873108E-01 4.00656329E-01-0.00000000E+00-4.91861164E-02
21 15 6.15200235E-03 4.30341141E-02 1.90166205E-02-0.00000000E+00-0.00000000E+00
21 16-1.01022567E-01-3.03468379E+00-1.36575877E-03-3.82466795E-02-0.00000000E+00
21 17-4.62952688E+00-6.68297967E-02-5.29618999E-01-0.00000000E+00
22  1-4.41981880E-04 1.06408943E-03 3.03466306E-01 9.83932529E-02-3.05294591E-02
22  2 0.00000000E+00 7.39528654E-01-4.35503225E-01 0.00000000E+00-1.12479365E-02
22  3-2.06510197E-03 1.33130385E-02 2.29838453E-02 0.00000000E+00 0.00000000E+00
22  4-2.73817482E-01-7.84505454E-01 6.46137621E-01 0.00000000E+00-1.15227679E-01
22  5 1.31996063E-01-1.67683844E-02-1.37338901E-01 0.00000000E+00 0.00000000E+00
22  6 2.42055982E-03-1.78490968E-02-7.00404939E-02-1.32455127E-02-1.18851729E-02
22  7 0.00000000E+00 3.65341043E-02 4.04458308E-02 0.00000000E+00 4.74264134E-04
22  8 4.86650403E-03-5.34076817E-03 8.82290621E-03 0.00000000E+00 0.00000000E+00
22  9-1.39865715E+00 1.30171833E+00 4.01007588E-01 0.00000000E+00-1.77321007E-02
22 10-1.88039844E-02 3.65360851E-02-2.96437071E-02 0.00000000E+00 0.00000000E+00
22 11-1.09651807E-02 1.20798140E-02 2.09855943E-01-1.71663460E-02 7.56890616E-02