!   File created by MacMolPlt 7.4.3
 $CONTRL SCFTYP=MCSCF RUNTYP=HESSIAN EXETYP=RUN MAXIT=30 MULT=2 ISPHER=1 
    COORD=ZMT NOSYM=1 $END
 $SYSTEM TIMLIM=525600 MEMORY=1310720000 PARALL=.TRUE. $END
 $BASIS GBASIS=ACCD $END
 $GUESS GUESS=MOREAD NORB=16 $END
 $DET NCORE=3 NACT=13 NELS=17 $END
 $MCSCF MAXIT=200 $END
 $FORCE METHOD=SEMINUM VIBSIZ=0.010000 VIBANL=.TRUE. $END
 $DATA 
CS HCO2 data
C1
C
O  1    1.21528
O   1    1.34300  2 121.4688
H   1    1.09936  3 111.4835  2 180.0000
 $END
 $VEC
 1  1-1.18999997E-04-3.88999993E-04 1.09630004E-02-2.64000002E-04 9.69999994E-04
 1  2 0.00000000E+00-6.64599985E-03 4.15800000E-03 0.00000000E+00-2.20000002E-04
 1  3 4.64000012E-04-2.43999995E-04 5.26999997E-04 0.00000000E+00 0.00000000E+00
 1  4 3.93400015E-03-2.18999994E-04-7.20000025E-05 0.00000000E+00 1.99400005E-03
 1  5-7.45999976E-04-1.24799996E-03-2.59699998E-03 0.00000000E+00 0.00000000E+00
 1  6 1.24289999E-02-1.60000000E-05-9.58000019E-04 3.87000007E-04-3.45999986E-04
 1  7 0.00000000E+00 1.48700003E-03 1.44999998E-04 0.00000000E+00-1.07000000E-04
 1  8 9.69999965E-05 9.99999975E-06-4.50000007E-05 0.00000000E+00 0.00000000E+00
 1  9-9.00000014E-05-3.38999991E-04 9.60000034E-05 0.00000000E+00-4.03999991E-04
 1 10 2.30000005E-05 3.80999991E-04-3.09999996E-05 0.00000000E+00 0.00000000E+00
 1 11 1.00110400E+00-1.58149991E-02-3.31350006E-02 7.50900013E-03-3.80100007E-03
 1 12 0.00000000E+00-5.00999973E-04 5.60000008E-05 0.00000000E+00 7.40000032E-05
 1 13-1.88999998E-04 1.16000003E-04-2.20000002E-04 0.00000000E+00 0.00000000E+00
 1 14-7.73099996E-03-1.28299999E-03 4.03000013E-04 0.00000000E+00-4.78000002E-04
 1 15 2.47999997E-04 2.30000005E-04 5.66000002E-04 0.00000000E+00 0.00000000E+00
 1 16-1.87200005E-03-2.54000013E-04 1.18000004E-04-5.97000006E-04 0.00000000E+00
 1 17-9.60999983E-04-5.15000022E-04-2.03000003E-04 0.00000000E+00
 2  1 7.14999973E-04 3.30000010E-04 1.03040002E-02-2.72000005E-04-2.58999993E-04
 2  2-0.00000000E+00 6.49499986E-03 5.91199985E-03-0.00000000E+00-6.93999988E-04
 2  3 5.09999983E-04 1.82999996E-04-1.20399997E-03-0.00000000E+00-0.00000000E+00
 2  4 4.40600002E-03 6.60000005E-05 9.00000014E-05-0.00000000E+00 1.52000005E-03
 2  5-3.34000011E-04-1.18599995E-03 3.63299996E-03-0.00000000E+00-0.00000000E+00
 2  6 1.00116897E+00-1.84109993E-02-3.83489989E-02-8.95200018E-03-5.80399996E-03
 2  7-0.00000000E+00-7.86999997E-04-1.22300000E-03-0.00000000E+00 1.34999995E-04
 2  8 4.80000017E-05-1.84000004E-04 1.71000007E-04-0.00000000E+00-0.00000000E+00
 2  9-1.03380000E-02 1.56500004E-03 4.94999986E-04-0.00000000E+00-2.77000014E-04
 2 10 1.53000001E-04 1.23999998E-04-2.26000004E-04-0.00000000E+00-0.00000000E+00
 2 11-1.22680003E-02 9.38999990E-04 9.94000002E-04-1.69000006E-04 1.05800002E-03
 2 12-0.00000000E+00-8.60999979E-04 1.03199994E-03-0.00000000E+00-9.10000017E-05
 2 13 7.50000036E-05 1.60000000E-05 3.60000013E-05-0.00000000E+00-0.00000000E+00
 2 14 5.86999988E-04 6.92999980E-04 2.22999995E-04-0.00000000E+00-3.57999990E-04
 2 15 3.79999983E-05 3.19999992E-04-2.90000007E-05-0.00000000E+00-0.00000000E+00
 2 16-3.87000007E-04 2.26400001E-03-2.76000006E-04-3.87999986E-04-0.00000000E+00
 2 17-9.11000010E-04 1.70000002E-03 6.62999984E-04-0.00000000E+00
 3  1 1.00352895E+00-2.03999993E-03-1.43160000E-02 1.09899999E-03 1.12760002E-02
 3  2 0.00000000E+00-2.41999995E-04 8.02700035E-03 0.00000000E+00 1.30899996E-03
 3  3-2.68000003E-04-1.04100001E-03-5.29999998E-05 0.00000000E+00 0.00000000E+00
 3  4-2.73899990E-03 3.19999999E-05 1.81900000E-03 0.00000000E+00 9.00000032E-06
 3  5-7.15999980E-04 7.06000021E-04-8.57000006E-04 0.00000000E+00 0.00000000E+00
 3  6 1.82999996E-04 4.48000006E-04-1.88999996E-03-2.54999992E-04-1.14700000E-03
 3  7 0.00000000E+00 2.69200001E-03 1.80999996E-04 0.00000000E+00 2.89999996E-04
 3  8-1.72999993E-04-1.17000003E-04 2.03000003E-04 0.00000000E+00 0.00000000E+00
 3  9-3.22000007E-04 1.67999999E-04-1.13600004E-03 0.00000000E+00-9.38999990E-04
 3 10 8.70000003E-05 8.52000026E-04-1.27899996E-03 0.00000000E+00 0.00000000E+00
 3 11 8.32999998E-04-1.22800004E-03-4.43099998E-03 1.40299997E-03 1.15499995E-03
 3 12 0.00000000E+00-1.71800004E-03 1.61799998E-03 0.00000000E+00 5.09999991E-05
 3 13-1.46000006E-04 9.60000034E-05 2.20999995E-04 0.00000000E+00 0.00000000E+00
 3 14-1.85899995E-03-2.77999992E-04-5.02999988E-04 0.00000000E+00-9.60999983E-04
 3 15 1.06000000E-04 8.54999991E-04 1.29000004E-03 0.00000000E+00 0.00000000E+00
 3 16-1.31139997E-02 5.86199993E-03-1.60000000E-05-1.58499996E-03 0.00000000E+00
 3 17 1.29699998E-03-3.30000003E-05 2.75600003E-03 0.00000000E+00
 4  1 3.45000008E-04 2.42572993E-01 4.15050015E-02 3.52410004E-02 1.03701003E-01
 4  2 0.00000000E+00 1.14740003E-02-5.21279983E-02 0.00000000E+00 2.85909995E-02
 4  3-1.23969996E-02-1.61940008E-02 7.32399989E-03 0.00000000E+00 0.00000000E+00
 4  4-1.72729995E-02 3.09400004E-03-8.74099974E-03 0.00000000E+00-1.36099998E-02
 4  5-2.04299996E-03 1.56529993E-02-7.06399977E-03 0.00000000E+00 0.00000000E+00
 4  6 1.77599993E-02 3.02572995E-01 3.16715002E-01-8.89490023E-02-4.74869981E-02
 4  7 0.00000000E+00-3.45420018E-02-7.30200019E-03 0.00000000E+00 9.08700004E-03
 4  8-2.52799992E-03-6.55899988E-03 9.75700002E-03 0.00000000E+00 0.00000000E+00
 4  9 2.34600008E-02 1.09399995E-03 5.18799992E-03 0.00000000E+00 1.61399995E-03
 4 10-3.10499989E-03 1.49099994E-03-5.69899986E-03 0.00000000E+00 0.00000000E+00
 4 11 1.54510001E-02 2.71169990E-01 3.06547999E-01 6.87209964E-02-2.88900007E-02
 4 12 0.00000000E+00 4.76000011E-02-1.74260009E-02 0.00000000E+00 7.65400007E-03
 4 13-3.20599996E-03-4.44799988E-03-6.00299984E-03 0.00000000E+00 0.00000000E+00
 4 14 3.70239988E-02 1.12799997E-03 1.11399998E-03 0.00000000E+00 7.16600008E-03
 4 15-4.19900008E-03-2.96700001E-03-2.40799994E-03 0.00000000E+00 0.00000000E+00
 4 16 4.79810014E-02-4.38029990E-02 2.12000008E-03 1.32210003E-02 0.00000000E+00
 4 17 5.70000011E-05-8.29800032E-03-1.42069999E-02 0.00000000E+00
 5  1 3.61100002E-03-2.05400009E-02-4.97069992E-02-2.20785007E-01-2.15690006E-02
 5  2 0.00000000E+00 2.93930005E-02-6.83000020E-04 0.00000000E+00 5.63499983E-03
 5  3-6.40399987E-03 7.68999977E-04-4.16439995E-02 0.00000000E+00 0.00000000E+00
 5  4-1.95489991E-02-6.30999974E-04 1.74800004E-03 0.00000000E+00-2.51700007E-03
 5  5-7.37000024E-04 3.25400010E-03 3.60159986E-02 0.00000000E+00 0.00000000E+00
 5  6-1.98350009E-02-2.96000004E-01-3.08739990E-01 4.84380014E-02 4.96580005E-02
 5  7 0.00000000E+00-2.85000005E-03 8.39999970E-03 0.00000000E+00-3.35899997E-03
 5  8-1.56200002E-03 4.92099999E-03-8.26700032E-03 0.00000000E+00 0.00000000E+00
 5  9-2.10239999E-02 4.81500011E-03-4.46100021E-03 0.00000000E+00 9.33399983E-03
 5 10-3.59899993E-03-5.73500013E-03 5.32800006E-03 0.00000000E+00 0.00000000E+00
 5 11 2.18950007E-02 3.59052002E-01 4.10993993E-01 4.41210009E-02-3.35440002E-02
 5 12 0.00000000E+00 2.36029997E-02-1.74729992E-02 0.00000000E+00 3.76300002E-03
 5 13-2.74999999E-04-3.48900002E-03-6.07899996E-03 0.00000000E+00 0.00000000E+00
 5 14 4.79229987E-02 9.50600021E-03 4.91000013E-04 0.00000000E+00-4.38399985E-03
 5 15 5.41999994E-04 3.84199992E-03-2.74699996E-03 0.00000000E+00 0.00000000E+00
 5 16 7.46299978E-03 1.30719999E-02-5.37900021E-03 2.71699997E-03 0.00000000E+00
 5 17 5.09400014E-03 1.46260001E-02 4.69300011E-03 0.00000000E+00
 6  1 1.91709995E-02 3.22434992E-01 1.77460998E-01-4.07439992E-02-1.55365005E-01
 6  2 0.00000000E+00 1.99300004E-03-1.85889993E-02 0.00000000E+00 4.41600010E-03
 6  3 3.06200003E-03-7.47800013E-03-8.51000019E-04 0.00000000E+00 0.00000000E+00
 6  4 8.54500011E-03 1.50799996E-03-8.32299981E-03 0.00000000E+00 3.98699986E-03
 6  5-1.12309996E-02 7.24400021E-03 3.49200005E-03 0.00000000E+00 0.00000000E+00
 6  6-1.67089999E-02-1.62829995E-01-2.31634006E-01-1.20073996E-01-1.46126002E-01
 6  7 0.00000000E+00-6.43640012E-02-7.65559971E-02 0.00000000E+00 1.38300005E-03
 6  8 1.86099997E-03-3.24400002E-03 8.12499970E-03 0.00000000E+00 0.00000000E+00
 6  9-4.76120003E-02 5.07600000E-03 8.96000024E-03 0.00000000E+00 2.55799992E-03
 6 10 1.44200004E-03-4.00000019E-03 9.96499974E-03 0.00000000E+00 0.00000000E+00
 6 11-1.47230001E-02-1.59244001E-01-2.16589004E-01 1.87187999E-01-1.48286998E-01
 6 12 0.00000000E+00 1.03602998E-01-8.12499970E-02 0.00000000E+00 4.83499980E-03
 6 13 2.09000005E-04-5.04299998E-03-9.60000046E-03 0.00000000E+00 0.00000000E+00
 6 14-2.51219999E-02 3.65000014E-04 8.05999991E-03 0.00000000E+00 4.34800005E-03
 6 15 2.85200006E-03-7.19900010E-03-1.11290002E-02 0.00000000E+00 0.00000000E+00
 6 16 2.78301001E-01 1.04217999E-01 1.36100000E-03 2.84269992E-02 0.00000000E+00
 6 17-2.68799998E-03 2.63600005E-03 1.98940001E-02 0.00000000E+00
 7  1-8.88099987E-03 4.14509997E-02 9.38580036E-02-1.84792995E-01 3.37736011E-01
 7  2 0.00000000E+00-3.21919993E-02 2.65459996E-02 0.00000000E+00 1.19719999E-02
 7  3-2.62999994E-04-1.17090000E-02-1.73080005E-02 0.00000000E+00 0.00000000E+00
 7  4 3.20179984E-02 6.98000018E-04-2.68399995E-03 0.00000000E+00 3.61600006E-03
 7  5-3.41199990E-03-2.03999996E-04 3.31899989E-03 0.00000000E+00 0.00000000E+00
 7  6-3.79000005E-04-1.83579996E-02-4.08210009E-02-1.67536005E-01 1.87517002E-01
 7  7 0.00000000E+00-9.46590006E-02 1.20807998E-01 0.00000000E+00 1.22900000E-02
 7  8-1.10889999E-02-1.20099995E-03-4.15800000E-03 0.00000000E+00 0.00000000E+00
 7  9-1.07000005E-02-7.88000040E-03 6.03900012E-03 0.00000000E+00 1.06469998E-02
 7 10-1.35840001E-02 2.93700001E-03-9.00899991E-03 0.00000000E+00 0.00000000E+00
 7 11-1.43040000E-02-1.04843996E-01-1.83948994E-01 3.82355005E-01-1.15864001E-01
 7 12 0.00000000E+00 2.09774002E-01-5.60319982E-02 0.00000000E+00 1.44300004E-02
 7 13-6.74099987E-03-7.68900011E-03-8.21399968E-03 0.00000000E+00 0.00000000E+00
 7 14-4.38380018E-02 7.01100007E-03-4.02199989E-03 0.00000000E+00 6.34199986E-03
 7 15-5.15600014E-03-1.18599995E-03 1.65200001E-03 0.00000000E+00 0.00000000E+00
 7 16-2.19929993E-01-1.72216997E-01-3.92099982E-03-1.68319996E-02 0.00000000E+00
 7 17-9.84499976E-03-4.60499991E-03-4.69920002E-02 0.00000000E+00
 8  1-7.37999973E-04-7.15790018E-02-1.12378001E-01-3.29160005E-01-2.01240003E-01
 8  2 0.00000000E+00-5.89700006E-02-1.83899999E-02 0.00000000E+00 3.03000008E-04
 8  3-3.89100006E-03 3.58700007E-03-2.91370004E-02 0.00000000E+00 0.00000000E+00
 8  4-5.34369983E-02-6.23100018E-03 4.40000003E-04 0.00000000E+00-2.11800006E-03
 8  5 8.06999975E-04 1.31099997E-03 2.94000003E-03 0.00000000E+00 0.00000000E+00
 8  6 2.15370003E-02 1.44008994E-01 2.96878010E-01 4.12591994E-01 2.43572995E-01
 8  7 0.00000000E+00 1.90724999E-01 1.06023997E-01 0.00000000E+00-1.31900003E-02
 8  8 2.19599996E-03 1.09940004E-02-1.75269991E-02 0.00000000E+00 0.00000000E+00
 8  9 1.21609002E-01-1.37900002E-03-3.33800004E-03 0.00000000E+00 3.93099990E-03
 8 10-8.36000021E-04-3.09500005E-03 4.42299992E-03 0.00000000E+00 0.00000000E+00
 8 11-6.90700021E-03-4.32780012E-02-7.24700019E-02 1.28158003E-01-1.89349994E-01
 8 12 0.00000000E+00 6.91509992E-02-1.16184004E-01 0.00000000E+00 2.26000004E-04
 8 13 3.40100005E-03-3.62799992E-03-9.01100039E-03 0.00000000E+00 0.00000000E+00
 8 14-2.34110001E-02-3.44000000E-04 3.56000004E-04 0.00000000E+00-6.42100023E-03
 8 15 8.93099979E-03-2.51000002E-03-8.77899956E-03 0.00000000E+00 0.00000000E+00
 8 16 1.19832002E-01 9.68270004E-02-5.84599981E-03 1.01830000E-02 0.00000000E+00
 8 17 1.23840002E-02-4.98099998E-03 2.57789996E-02 0.00000000E+00
 9  1 0.00000000E+00 0.00000000E+00 0.00000000E+00 0.00000000E+00 0.00000000E+00
 9  2 2.94705003E-01 0.00000000E+00 0.00000000E+00 1.11194000E-01 0.00000000E+00
 9  3 0.00000000E+00 0.00000000E+00 0.00000000E+00-9.63300001E-03 2.16750000E-02
 9  4 0.00000000E+00 0.00000000E+00 0.00000000E+00 2.03499990E-03 0.00000000E+00
 9  5 0.00000000E+00 0.00000000E+00 0.00000000E+00 8.23999988E-04-2.14419998E-02
 9  6 0.00000000E+00 0.00000000E+00 0.00000000E+00 0.00000000E+00 0.00000000E+00
 9  7 2.47852996E-01 0.00000000E+00 0.00000000E+00 1.52498007E-01 0.00000000E+00
 9  8 0.00000000E+00 0.00000000E+00 0.00000000E+00-1.24890003E-02-7.95499980E-03
 9  9 0.00000000E+00 0.00000000E+00 0.00000000E+00 8.37299973E-03 0.00000000E+00
 9 10 0.00000000E+00 0.00000000E+00 0.00000000E+00-1.63509995E-02-8.15400016E-03
 9 11 0.00000000E+00 0.00000000E+00 0.00000000E+00 0.00000000E+00 0.00000000E+00
 9 12 4.88002002E-01 0.00000000E+00 0.00000000E+00 3.29688996E-01 0.00000000E+00
 9 13 0.00000000E+00 0.00000000E+00 0.00000000E+00 1.43889999E-02-7.61500001E-03
 9 14 0.00000000E+00 0.00000000E+00 0.00000000E+00 2.92509999E-02 0.00000000E+00
 9 15 0.00000000E+00 0.00000000E+00 0.00000000E+00 2.33839992E-02-1.25190001E-02
 9 16 0.00000000E+00 0.00000000E+00 0.00000000E+00 0.00000000E+00 8.96199979E-03
 9 17 0.00000000E+00 0.00000000E+00 0.00000000E+00-1.12150004E-02
10  1 0.00000000E+00 0.00000000E+00 0.00000000E+00 0.00000000E+00 0.00000000E+00
10  2 1.92653000E-01 0.00000000E+00 0.00000000E+00 1.01820000E-01 0.00000000E+00
10  3 0.00000000E+00 0.00000000E+00 0.00000000E+00 5.34930006E-02 1.31209996E-02
10  4 0.00000000E+00 0.00000000E+00 0.00000000E+00 8.28900002E-03 0.00000000E+00
10  5 0.00000000E+00 0.00000000E+00 0.00000000E+00-1.15799997E-03-5.76400012E-03
10  6 0.00000000E+00 0.00000000E+00 0.00000000E+00 0.00000000E+00 0.00000000E+00
10  7 4.78325009E-01 0.00000000E+00 0.00000000E+00 3.21500003E-01 0.00000000E+00
10  8 0.00000000E+00 0.00000000E+00 0.00000000E+00-1.53799998E-02-1.01359999E-02
10  9 0.00000000E+00 0.00000000E+00 0.00000000E+00 4.17850018E-02 0.00000000E+00
10 10 0.00000000E+00 0.00000000E+00 0.00000000E+00-1.82700008E-02-1.06180003E-02
10 11 0.00000000E+00 0.00000000E+00 0.00000000E+00 0.00000000E+00 0.00000000E+00
10 12-4.02736992E-01 0.00000000E+00 0.00000000E+00-2.92558998E-01 0.00000000E+00
10 13 0.00000000E+00 0.00000000E+00 0.00000000E+00-3.77999991E-03 2.51200004E-03
10 14 0.00000000E+00 0.00000000E+00 0.00000000E+00-4.96729985E-02 0.00000000E+00
10 15 0.00000000E+00 0.00000000E+00 0.00000000E+00-7.34299980E-03 7.08900020E-03
10 16 0.00000000E+00 0.00000000E+00 0.00000000E+00 0.00000000E+00 6.62600016E-03
10 17 0.00000000E+00 0.00000000E+00 0.00000000E+00-7.81499967E-03
11  1 4.84499987E-03 1.97759997E-02 6.26410022E-02 1.59300007E-02-1.08209997E-01
11  2 0.00000000E+00 8.40900000E-03-3.90929990E-02 0.00000000E+00-7.60300010E-02
11  3 7.03129992E-02 5.71600022E-03 3.80010009E-02 0.00000000E+00 0.00000000E+00
11  4 1.73649993E-02 6.84599997E-03-2.08230000E-02 0.00000000E+00-2.13110000E-02
11  5 2.38809995E-02-2.57000001E-03 3.84599995E-03 0.00000000E+00 0.00000000E+00
11  6-1.39899994E-03-1.21529996E-02-9.21799988E-03-2.48126999E-01 5.00522971E-01
11  7 0.00000000E+00-1.80698007E-01 3.28714997E-01 0.00000000E+00 7.23899994E-03
11  8-8.09300039E-03 8.53999984E-04-6.80600014E-03 0.00000000E+00 0.00000000E+00
11  9 7.20199989E-03-4.04709987E-02 6.94499984E-02 0.00000000E+00 8.72199982E-03
11 10-5.58499992E-03-3.13699991E-03-2.07599998E-03 0.00000000E+00 0.00000000E+00
11 11 3.59699992E-03-2.84020007E-02-2.46610008E-02-1.54734001E-01 1.76363006E-01
11 12 0.00000000E+00-1.00123003E-01 1.08055003E-01 0.00000000E+00-2.53599999E-03
11 13 1.30300003E-03 1.23299996E-03 4.32999991E-03 0.00000000E+00 0.00000000E+00
11 14 2.60249991E-02-9.94400028E-03 1.53190000E-02 0.00000000E+00-4.75999992E-03
11 15 6.09799987E-03-1.33799994E-03-4.41999990E-04 0.00000000E+00 0.00000000E+00
11 16 2.16560006E-01 1.18390001E-01 1.33100001E-03 3.55600007E-03 0.00000000E+00
11 17-6.88000000E-04-1.36869997E-02-2.51600007E-03 0.00000000E+00
12  1-1.88500003E-03 9.71500017E-03 1.25740003E-02-1.86589994E-02-6.07240014E-02
12  2 0.00000000E+00-2.89590005E-02-6.76779971E-02 0.00000000E+00-2.31989995E-02
12  3 1.90820005E-02 4.11699992E-03-3.16519998E-02 0.00000000E+00 0.00000000E+00
12  4-3.24800014E-02-3.32799996E-03 1.99999995E-05 0.00000000E+00 2.00640000E-02
12  5-2.02009995E-02 1.36999995E-04 5.31309992E-02 0.00000000E+00 0.00000000E+00
12  6-3.98000004E-04-2.09320001E-02-1.16790002E-02 2.05996007E-01-7.19470009E-02
12  7 0.00000000E+00 9.26600024E-02-4.64130007E-02 0.00000000E+00-5.76299988E-03
12  8 3.92600009E-03 1.83800003E-03-1.81100005E-03 0.00000000E+00 0.00000000E+00
12  9 2.77110003E-02-4.19999997E-05-7.20300013E-03 0.00000000E+00-4.22899984E-03
12 10 7.25999987E-03-3.03100003E-03 2.97900010E-03 0.00000000E+00 0.00000000E+00
12 11-2.66999996E-04 1.98599999E-03 1.07589997E-02 3.41524005E-01 5.70375025E-01
12 12 0.00000000E+00 2.28301004E-01 3.92758012E-01 0.00000000E+00 9.34899971E-03
12 13-8.55199993E-03-7.97000015E-04 6.83900015E-03 0.00000000E+00 0.00000000E+00
12 14 2.81530004E-02 2.50000004E-02 2.41390001E-02 0.00000000E+00 2.12689992E-02
12 15-2.17819996E-02 5.13000006E-04 1.49010001E-02 0.00000000E+00 0.00000000E+00
12 16 8.54500011E-02 1.49349999E-02-1.29499997E-03 6.32800022E-03 0.00000000E+00
12 17 1.13340002E-02 4.76940013E-02-1.27029996E-02 0.00000000E+00
13  1 0.00000000E+00 0.00000000E+00 0.00000000E+00 0.00000000E+00 0.00000000E+00
13  2-5.99789977E-01 0.00000000E+00 0.00000000E+00-2.71012992E-01 0.00000000E+00
13  3 0.00000000E+00 0.00000000E+00 0.00000000E+00-1.62799992E-02-2.55290009E-02
13  4 0.00000000E+00 0.00000000E+00 0.00000000E+00 8.51400010E-03 0.00000000E+00
13  5 0.00000000E+00 0.00000000E+00 0.00000000E+00-1.53209995E-02-2.95999995E-03
13  6 0.00000000E+00 0.00000000E+00 0.00000000E+00 0.00000000E+00 0.00000000E+00
13  7 6.45096004E-01 0.00000000E+00 0.00000000E+00 5.50430007E-02 0.00000000E+00
13  8 0.00000000E+00 0.00000000E+00 0.00000000E+00 5.90700004E-03 3.12800007E-03
13  9 0.00000000E+00 0.00000000E+00 0.00000000E+00-3.46430019E-02 0.00000000E+00
13 10 0.00000000E+00 0.00000000E+00 0.00000000E+00 3.24160010E-02 1.13700004E-02
13 11 0.00000000E+00 0.00000000E+00 0.00000000E+00 0.00000000E+00 0.00000000E+00
13 12 3.15138996E-01 0.00000000E+00 0.00000000E+00 6.42789975E-02 0.00000000E+00
13 13 0.00000000E+00 0.00000000E+00 0.00000000E+00-7.86199979E-03 9.53999988E-04
13 14 0.00000000E+00 0.00000000E+00 0.00000000E+00 1.61000004E-04 0.00000000E+00
13 15 0.00000000E+00 0.00000000E+00 0.00000000E+00-2.25189999E-02 6.72399998E-03
13 16 0.00000000E+00 0.00000000E+00 0.00000000E+00 0.00000000E+00-1.75340008E-02
13 17 0.00000000E+00 0.00000000E+00 0.00000000E+00 9.69799981E-03
14  1-9.31420028E-02-4.71579999E-01-3.87380987E-01 4.95882004E-01-3.81742001E-01
14  2 0.00000000E+00 1.49883002E-01-1.06269002E-01 0.00000000E+00-3.21860015E-02
14  3 1.80980004E-02 1.40880002E-02 3.47689986E-02 0.00000000E+00 0.00000000E+00
14  4-8.65989998E-02 4.85800020E-03 7.69500015E-03 0.00000000E+00-2.49310005E-02
14  5 1.17060002E-02 1.32259997E-02 8.62899981E-03 0.00000000E+00 0.00000000E+00
14  6 8.98300018E-03 6.32510036E-02 7.50129968E-02-3.07473987E-01 1.55221999E-01
14  7 0.00000000E+00-1.38999996E-04-5.44500016E-02 0.00000000E+00-8.63599963E-03
14  8 1.10299997E-02-2.39400007E-03 1.05659999E-02 0.00000000E+00 0.00000000E+00
14  9 1.90089997E-02 1.72739998E-02-2.20829993E-02 0.00000000E+00-3.42679992E-02
14 10 3.23750004E-02 1.89399999E-03 1.21990005E-02 0.00000000E+00 0.00000000E+00
14 11 6.64720014E-02 3.02343011E-01 2.78062999E-01 6.39822006E-01-2.95818001E-01
14 12 0.00000000E+00 1.13293998E-01-2.66890004E-02 0.00000000E+00-8.87000002E-03
14 13 1.98059995E-02-1.09360004E-02 1.98860001E-02 0.00000000E+00 0.00000000E+00
14 14 1.29679993E-01 1.60939991E-02-5.92300016E-03 0.00000000E+00-2.35949997E-02
14 15 1.32820001E-02 1.03120003E-02 2.61179991E-02 0.00000000E+00 0.00000000E+00
14 16 6.98309988E-02 7.84550011E-02 1.26419999E-02-5.31999976E-04 0.00000000E+00
14 17 1.88749991E-02 6.26000017E-03 3.03259995E-02 0.00000000E+00
15  1 1.13880001E-01 4.85702008E-01 2.57137001E-01 2.76887000E-01 5.20580001E-02
15  2 0.00000000E+00 9.08199996E-02 4.21909988E-02 0.00000000E+00 1.71143994E-01
15  3-1.69882998E-01-1.26100006E-03-7.41529986E-02 0.00000000E+00 0.00000000E+00
15  4 3.38900015E-02-1.58820003E-02 5.51239997E-02 0.00000000E+00 7.94420019E-02
15  5-7.50129968E-02-4.42899996E-03 9.60000034E-05 0.00000000E+00 0.00000000E+00
15  6-2.11830009E-02-1.29619002E-01-2.45974004E-01 8.89659971E-02 8.14547002E-01
15  7 0.00000000E+00 2.27524996E-01-3.25839996E-01 0.00000000E+00-2.21529994E-02
15  8 2.28850003E-02-7.30999978E-04 7.77600007E-03 0.00000000E+00 0.00000000E+00
15  9-1.66584998E-01 9.59609970E-02-1.33957997E-01 0.00000000E+00-4.59370017E-02
15 10 4.92950007E-02-3.35799996E-03 5.90669997E-02 0.00000000E+00 0.00000000E+00
15 11-4.12499998E-03 1.62600004E-03-1.57200005E-02-9.90910009E-02 1.20166004E-01
15 12 0.00000000E+00 3.07919998E-02-3.39299999E-03 0.00000000E+00-2.92099989E-03
15 13-6.47199992E-03 9.39300004E-03-1.15790004E-02 0.00000000E+00 0.00000000E+00
15 14-6.96910024E-02 2.10379995E-02-2.03820001E-02 0.00000000E+00 1.19319996E-02
15 15-1.88859999E-02 6.95399987E-03-6.09500008E-03 0.00000000E+00 0.00000000E+00
15 16-2.25811005E-01-1.51454002E-01 1.43630002E-02 2.12980006E-02 0.00000000E+00
15 17 2.13699997E-03 4.19550017E-02 1.42179998E-02 0.00000000E+00
16  1 2.55410001E-02 1.41737998E-01 2.82573998E-01 7.25548029E-01 3.34077001E-01
16  2 0.00000000E+00 2.41722003E-01 7.52390027E-02 0.00000000E+00-1.46504000E-01
16  3 1.38468996E-01 8.03500041E-03 1.12338997E-01 0.00000000E+00 0.00000000E+00
16  4 1.11207999E-01 3.19890007E-02-4.22799997E-02 0.00000000E+00-4.31800000E-02
16  5 5.45779988E-02-1.13979997E-02 3.77920009E-02 0.00000000E+00 0.00000000E+00
16  6-9.19800028E-02-3.39810014E-01-2.84969985E-01 7.54158974E-01-7.80000002E-04
16  7 0.00000000E+00-9.46500003E-02 2.69452989E-01 0.00000000E+00 1.49940001E-02
16  8-9.26500000E-03-5.72900008E-03-2.54000013E-04 0.00000000E+00 0.00000000E+00
16  9-1.85983002E-01-3.60770002E-02 1.12856999E-01 0.00000000E+00 5.04189990E-02
16 10-2.82460004E-02-2.21740007E-02-9.10000037E-03 0.00000000E+00 0.00000000E+00
16 11 2.75970008E-02 7.77219981E-02 7.59729967E-02 1.30691007E-01-3.30473989E-01
16 12 0.00000000E+00-4.77540009E-02-7.30200019E-03 0.00000000E+00 9.92100034E-03
16 13 8.98000028E-04-1.08190002E-02 3.26660015E-02 0.00000000E+00 0.00000000E+00
16 14 1.09168001E-01-2.70899991E-03 1.27170002E-02 0.00000000E+00-2.62799999E-03
16 15-7.69999984E-04 3.39800003E-03 2.89750006E-02 0.00000000E+00 0.00000000E+00
16 16 7.93000013E-02 1.67989992E-02 1.45300003E-02-2.56069992E-02 0.00000000E+00
16 17-3.14590000E-02-2.02549994E-02-3.45959999E-02 0.00000000E+00
 $END

