!   File created by MacMolPlt 7.4.2
 $CONTRL SCFTYP=MCSCF RUNTYP=OPTIMIZE MAXIT=30 MULT=2 ISPHER=1 COORD=ZMT 
    NOSYM=1 NZVAR=6 $END
 $SYSTEM TIMLIM=525600 MWORDS=1000 $END
 $DET NCORE=3 NACT=13 NELS=17 $END
 $GUESS GUESS=MOREAD NORB=78 $END
 $BASIS GBASIS=ACCD $END
 $STATPT IFREEZ(1)=2 $END
 $DATA 
CS HCO2 data
C1
C
O   1    1.31399
O   1    1.3430000  2 121.4688371
H   1    1.0993617  2 127.0476287  3 180.0000000
 $END
 $ZMAT IZMAT(1)=1,2,1, 1,3,1, 2,3,1,2, 1,4,1, 2,4,1,2, 3,4,1,2,3 $END
 $VEC   
 1  1-2.00151965E-04-4.67084021E-04 9.66797909E-03-2.64231198E-04 9.89206874E-04
 1  2-0.00000000E+00-6.69133067E-03 4.71925934E-03-0.00000000E+00-2.12021949E-04
 1  3 3.93480170E-04-1.81458221E-04 4.40369542E-04-0.00000000E+00-0.00000000E+00
 1  4 3.80035750E-03 1.23259286E-05-3.37408587E-05-0.00000000E+00 2.24453827E-03
 1  5-9.50238367E-04-1.29429990E-03-3.44366883E-03-0.00000000E+00-0.00000000E+00
 1  6 3.42507930E-03-1.68492295E-05-3.70773023E-04 3.75453727E-04-3.56627891E-04
 1  7-0.00000000E+00 1.24371132E-03 2.59537695E-04-0.00000000E+00-9.36750946E-05
 1  8 8.92996565E-05 4.37543811E-06-4.07768777E-05-0.00000000E+00-0.00000000E+00
 1  9 3.89673003E-04-6.12922742E-04 6.84774249E-05-0.00000000E+00-3.64074563E-04
 1 10-3.52770222E-05 3.99351586E-04-1.58295943E-05-0.00000000E+00-0.00000000E+00
 1 11 1.00120161E+00-1.56967815E-02-3.34900479E-02 7.17842500E-03-4.08043590E-03
 1 12-0.00000000E+00-8.34252749E-04-2.35946594E-04-0.00000000E+00 4.02262877E-05
 1 13-1.67860965E-04 1.27634677E-04-2.22153687E-04-0.00000000E+00-0.00000000E+00
 1 14-8.08532418E-03-1.54501551E-03 3.61381210E-04-0.00000000E+00-5.09916445E-04
 1 15 3.24038282E-04 1.85878163E-04 5.29853137E-04-0.00000000E+00-0.00000000E+00
 1 16-1.84756841E-03 6.75399630E-04 2.19099460E-04-5.35069403E-04-0.00000000E+00
 1 17-9.08727308E-04-1.35782009E-03 1.58614367E-04-0.00000000E+00
 2  1 5.49177991E-04 1.17010894E-04 1.20368062E-02-1.92420507E-04 6.09315184E-05
 2  2 0.00000000E+00 6.23837539E-03 5.01874553E-03 0.00000000E+00-6.46018951E-04
 2  3 5.72866486E-04 7.31524657E-05-1.27982430E-03 0.00000000E+00 0.00000000E+00
 2  4 4.80226252E-03 2.69434328E-04-1.27476784E-05 0.00000000E+00 1.27350507E-03
 2  5-1.22920637E-04-1.15058444E-03 2.93643754E-03 0.00000000E+00 0.00000000E+00
 2  6 1.00131346E+00-1.74224500E-02-3.67657112E-02-8.61636154E-03-5.72470950E-03
 2  7 0.00000000E+00-4.83466979E-04-1.14212591E-03 0.00000000E+00 1.39510664E-04
 2  8 5.28722946E-05-1.92382959E-04 1.77826383E-04 0.00000000E+00 0.00000000E+00
 2  9-9.96013702E-03 1.40443754E-03 4.68287691E-04 0.00000000E+00-3.10534702E-04
 2 10 1.01557064E-04 2.08977637E-04-2.70053515E-04 0.00000000E+00 0.00000000E+00
 2 11-3.28961859E-03 5.49832249E-04 8.07708194E-05 7.48623789E-05 9.93499808E-04
 2 12 0.00000000E+00-9.90451524E-04 9.26083813E-04 0.00000000E+00-9.67237879E-05
 2 13 7.51205605E-05 2.16032274E-05 4.24276546E-05 0.00000000E+00 0.00000000E+00
 2 14-8.31637270E-07 4.38655922E-04 2.76674263E-04 0.00000000E+00-4.17945466E-04
 2 15 7.15544883E-05 3.46390977E-04-8.98105295E-08 0.00000000E+00 0.00000000E+00
 2 16-9.42686743E-04 4.91087150E-04-1.39984785E-04-5.57923362E-04 0.00000000E+00
 2 17-1.09039774E-03 9.45781102E-04 6.53577254E-05 0.00000000E+00
 3  1 1.00338996E+00-3.72069828E-03-1.50516739E-02 3.20118998E-04 1.34810302E-02
 3  2-0.00000000E+00-6.15667038E-04 8.70849654E-03-0.00000000E+00 1.47926277E-03
 3  3-4.49195758E-04-1.03006701E-03-1.71389866E-04-0.00000000E+00-0.00000000E+00
 3  4-2.68244652E-03-3.04843911E-04 1.95606233E-03-0.00000000E+00 9.08363250E-05
 3  5-7.32198497E-04 6.41362172E-04-3.63186673E-04-0.00000000E+00-0.00000000E+00
 3  6 3.01300419E-04 2.87954519E-04-2.06126840E-03-3.66411391E-04-1.22424508E-03
 3  7-0.00000000E+00 2.56661475E-03-8.32966785E-05-0.00000000E+00 3.52506490E-04
 3  8-2.46672480E-04-1.05834010E-04 1.67232315E-04-0.00000000E+00-0.00000000E+00
 3  9-9.81051311E-04 5.08846834E-04-1.16766147E-03-0.00000000E+00-8.56414220E-04
 3 10 4.30448762E-05 8.13369344E-04-1.25056735E-03-0.00000000E+00-0.00000000E+00
 3 11 9.15827109E-04-1.45739163E-03-4.83615735E-03 1.60082703E-03 8.94009279E-04
 3 12-0.00000000E+00-1.82622653E-03 1.51064639E-03-0.00000000E+00 4.03739293E-05
 3 13-1.38596592E-04 9.82226626E-05 2.33675562E-04-0.00000000E+00-0.00000000E+00
 3 14-1.46844907E-03 2.45097311E-05-8.08724220E-04-0.00000000E+00-1.09470911E-03
 3 15 1.52919814E-04 9.41789297E-04 1.42622701E-03-0.00000000E+00-0.00000000E+00
 3 16-1.55511525E-02 4.77883921E-03 3.11679055E-04-1.72962771E-03-0.00000000E+00
 3 17 1.28719570E-03-6.74951091E-05 2.60630764E-03-0.00000000E+00
 4  1 2.45982973E-03 2.42104332E-01 3.70947293E-02 3.65088767E-02 1.04080635E-01
 4  2-0.00000000E+00 1.33444731E-02-4.85244818E-02-0.00000000E+00 2.85894995E-02
 4  3-1.24658215E-02-1.61236780E-02 8.32748297E-03-0.00000000E+00-0.00000000E+00
 4  4-1.78103839E-02 1.67992079E-03-8.37309904E-03-0.00000000E+00-1.30185818E-02
 4  5-2.31749009E-03 1.53360719E-02-2.36954698E-04-0.00000000E+00-0.00000000E+00
 4  6 1.71814440E-02 3.02393586E-01 3.11197816E-01-8.89340919E-02-4.71968241E-02
 4  7-0.00000000E+00-3.30433096E-02-7.87232303E-03-0.00000000E+00 9.14818798E-03
 4  8-2.62104099E-03-6.52714699E-03 9.62978870E-03-0.00000000E+00-0.00000000E+00
 4  9 1.95562809E-02 3.31534661E-03 4.95252431E-03-0.00000000E+00 1.24530329E-03
 4 10-2.54916346E-03 1.30386017E-03-6.00358133E-03-0.00000000E+00-0.00000000E+00
 4 11 1.55504101E-02 2.71556137E-01 3.10374732E-01 6.83116430E-02-2.95243622E-02
 4 12-0.00000000E+00 4.95501609E-02-1.67096444E-02-0.00000000E+00 7.64719946E-03
 4 13-3.16946988E-03-4.47772958E-03-6.10063045E-03-0.00000000E+00-0.00000000E+00
 4 14 4.04117741E-02 3.44108679E-03 1.35451330E-03-0.00000000E+00 7.73346814E-03
 4 15-4.58563954E-03-3.14782860E-03-2.74938539E-03-0.00000000E+00-0.00000000E+00
 4 16 4.86225254E-02-3.87651417E-02-2.10275939E-03 1.35186220E-02-0.00000000E+00
 4 17 4.53321669E-04 1.61231031E-03-1.23210226E-02-0.00000000E+00
 5  1 2.48878665E-03-2.16169382E-02-2.29458526E-02-2.21640108E-01-2.25825867E-02
 5  2-0.00000000E+00 2.92909873E-02-1.60837981E-02-0.00000000E+00 5.23862429E-03
 5  3-5.11511922E-03-1.23505077E-04-4.12388595E-02-0.00000000E+00-0.00000000E+00
 5  4-1.50217450E-02-1.46436471E-03 6.42967867E-04-0.00000000E+00-7.13022917E-03
 5  5 4.15187623E-03 2.97835294E-03 3.64942728E-02-0.00000000E+00-0.00000000E+00
 5  6-1.79677020E-02-2.95220748E-01-3.08049971E-01 4.82110809E-02 4.87892307E-02
 5  7-0.00000000E+00-1.45672625E-03 1.04199241E-02-0.00000000E+00-3.53166595E-03
 5  8-1.38835094E-03 4.92001689E-03-8.34493857E-03-0.00000000E+00-0.00000000E+00
 5  9-2.19323181E-02 5.28986463E-03-3.85990132E-03-0.00000000E+00 9.27022258E-03
 5 10-4.25796867E-03-5.01225391E-03 4.58394262E-03-0.00000000E+00-0.00000000E+00
 5 11 2.16955950E-02 3.59571356E-01 4.11974484E-01 4.39092345E-02-3.39991455E-02
 5 12-0.00000000E+00 2.19560428E-02-1.69740964E-02-0.00000000E+00 3.63717424E-03
 5 13-6.64815297E-05-3.57069271E-03-6.19146656E-03-0.00000000E+00-0.00000000E+00
 5 14 4.72457070E-02 9.74005908E-03 8.74889829E-04-0.00000000E+00-4.94929272E-03
 5 15 4.21603404E-04 4.52768932E-03-2.38463052E-03-0.00000000E+00-0.00000000E+00
 5 16-2.40065323E-03-7.91886702E-03-5.90402635E-03-3.38920568E-04-0.00000000E+00
 5 17 3.56247407E-03 1.50798471E-02-2.46460265E-03-0.00000000E+00
 6  1 2.35552218E-02 3.23991485E-01 1.82419267E-01-3.62632989E-02-1.56846260E-01
 6  2-0.00000000E+00-1.10773101E-02-2.24659665E-02-0.00000000E+00 4.98859869E-03
 6  3 2.62533770E-03-7.61393639E-03-5.59293017E-03-0.00000000E+00-0.00000000E+00
 6  4 1.03129216E-02 2.45609615E-03-8.61520187E-03-0.00000000E+00 3.91442626E-03
 6  5-1.10022550E-02 7.08782879E-03 7.78925314E-03-0.00000000E+00-0.00000000E+00
 6  6-1.55439848E-02-1.66211668E-01-2.36419200E-01-1.20023588E-01-1.45115165E-01
 6  7-0.00000000E+00-6.19436506E-02-7.73041874E-02-0.00000000E+00 1.34135223E-03
 6  8 1.99217599E-03-3.33352822E-03 8.15502073E-03-0.00000000E+00-0.00000000E+00
 6  9-4.44938529E-02 3.38616645E-03 7.47298244E-03-0.00000000E+00 1.83598345E-03
 6 10 1.24868217E-03-3.08466562E-03 9.09248503E-03-0.00000000E+00-0.00000000E+00
 6 11-1.45010854E-02-1.55379115E-01-2.12271551E-01 1.88022026E-01-1.46999426E-01
 6 12-0.00000000E+00 1.05509562E-01-7.97739366E-02-0.00000000E+00 4.77485642E-03
 6 13 1.08355484E-04-4.88321191E-03-9.78119862E-03-0.00000000E+00-0.00000000E+00
 6 14-2.97905632E-02-1.63084500E-03 9.40504267E-03-0.00000000E+00 5.10929258E-03
 6 15 2.27642886E-03-7.38572144E-03-1.17084134E-02-0.00000000E+00-0.00000000E+00
 6 16 2.75210973E-01 1.01243495E-01-6.08945118E-03 2.75486002E-02-0.00000000E+00
 6 17-3.30838212E-03-1.72143706E-03 1.88770984E-02-0.00000000E+00
 7  1-1.35953896E-02 4.17898362E-02 9.78819608E-02-1.88136375E-01 3.33139637E-01
 7  2 0.00000000E+00-1.56163983E-02 2.18115100E-02 0.00000000E+00 1.00967370E-02
 7  3 1.03820034E-03-1.11349374E-02-1.25267388E-02 0.00000000E+00 0.00000000E+00
 7  4 3.11940165E-02 2.52461237E-03-2.91228856E-03 0.00000000E+00 3.10930078E-03
 7  5-1.71793967E-03-1.39136111E-03-8.20553160E-03 0.00000000E+00 0.00000000E+00
 7  6-8.88951662E-04-1.60734300E-02-3.57851638E-02-1.67818378E-01 1.82166002E-01
 7  7 0.00000000E+00-9.82693975E-02 1.25834791E-01 0.00000000E+00 1.24147011E-02
 7  8-1.11708239E-02-1.24387716E-03-4.32689039E-03 0.00000000E+00 0.00000000E+00
 7  9-6.17838491E-03-1.01015877E-02 6.89691721E-03 0.00000000E+00 1.16404453E-02
 7 10-1.45759376E-02 2.93549225E-03-9.14560222E-03 0.00000000E+00 0.00000000E+00
 7 11-1.42675023E-02-1.09017925E-01-1.90822347E-01 3.80061991E-01-1.18193964E-01
 7 12 0.00000000E+00 2.05182247E-01-5.78066931E-02 0.00000000E+00 1.42472812E-02
 7 13-6.23921482E-03-8.00806637E-03-8.39721878E-03 0.00000000E+00 0.00000000E+00
 7 14-4.27092009E-02 5.83685122E-03-4.46976580E-03 0.00000000E+00 5.40380756E-03
 7 15-4.02023283E-03-1.38357473E-03 1.37793625E-03 0.00000000E+00 0.00000000E+00
 7 16-2.22718398E-01-1.70122600E-01-6.96346419E-04-1.71747045E-02 0.00000000E+00
 7 17-9.29760892E-03-4.52880881E-03-4.67651044E-02 0.00000000E+00
 8  1 1.26685196E-04-6.70223049E-02-9.81090254E-02-3.27790997E-01-2.10129237E-01
 8  2-0.00000000E+00-6.78785350E-02-2.97725945E-02-0.00000000E+00 1.08092506E-04
 8  3-4.11661953E-03 4.00852702E-03-3.11624041E-02-0.00000000E+00-0.00000000E+00
 8  4-5.13601388E-02-7.59330818E-03-2.63683334E-04-0.00000000E+00-3.71463789E-03
 8  5 3.90685009E-03-1.92212197E-04 8.13921720E-03-0.00000000E+00-0.00000000E+00
 8  6 2.08771138E-02 1.41947979E-01 2.93015067E-01 4.14262430E-01 2.41348571E-01
 8  7-0.00000000E+00 1.93422357E-01 1.06155077E-01-0.00000000E+00-1.38466394E-02
 8  8 2.93173162E-03 1.09149078E-02-1.72466693E-02-0.00000000E+00-0.00000000E+00
 8  9 1.22772357E-01-1.84045518E-03-2.27746519E-03-0.00000000E+00 3.64050985E-03
 8 10-1.19508219E-03-2.44542765E-03 3.99810389E-03-0.00000000E+00-0.00000000E+00
 8 11-6.65457916E-03-4.26352919E-02-7.23748406E-02 1.30300840E-01-1.89890756E-01
 8 12-0.00000000E+00 6.93442940E-02-1.14808150E-01-0.00000000E+00 5.35264040E-05
 8 13 3.65976153E-03-3.71328793E-03-9.24839583E-03-0.00000000E+00-0.00000000E+00
 8 14-2.22352025E-02 3.70278388E-05-6.28965658E-05-0.00000000E+00-6.46297658E-03
 8 15 8.53660174E-03-2.07362516E-03-8.61049375E-03-0.00000000E+00-0.00000000E+00
 8 16 1.09335960E-01 9.32967720E-02-8.08365624E-03 8.07286191E-03-0.00000000E+00
 8 17 1.24523556E-02-6.01755323E-03 2.49183537E-02-0.00000000E+00
 9  1 0.00000000E+00 0.00000000E+00 0.00000000E+00 0.00000000E+00 0.00000000E+00
 9  2 2.94591490E-01 0.00000000E+00 0.00000000E+00 1.12640693E-01 0.00000000E+00
 9  3 0.00000000E+00 0.00000000E+00 0.00000000E+00-9.07951081E-03 2.21847602E-02
 9  4 0.00000000E+00 0.00000000E+00 0.00000000E+00 2.79665971E-03 0.00000000E+00
 9  5 0.00000000E+00 0.00000000E+00 0.00000000E+00 4.47495056E-03-2.23011865E-02
 9  6 0.00000000E+00 0.00000000E+00 0.00000000E+00 0.00000000E+00 0.00000000E+00
 9  7 2.47178944E-01 0.00000000E+00 0.00000000E+00 1.51059985E-01 0.00000000E+00
 9  8 0.00000000E+00 0.00000000E+00 0.00000000E+00-1.25364426E-02-7.85097039E-03
 9  9 0.00000000E+00 0.00000000E+00 0.00000000E+00 7.85739029E-03 0.00000000E+00
 9 10 0.00000000E+00 0.00000000E+00 0.00000000E+00-1.61537112E-02-7.73378617E-03
 9 11 0.00000000E+00 0.00000000E+00 0.00000000E+00 0.00000000E+00 0.00000000E+00
 9 12 4.88986301E-01 0.00000000E+00 0.00000000E+00 3.30636951E-01 0.00000000E+00
 9 13 0.00000000E+00 0.00000000E+00 0.00000000E+00 1.43812166E-02-7.84938276E-03
 9 14 0.00000000E+00 0.00000000E+00 0.00000000E+00 2.89662846E-02 0.00000000E+00
 9 15 0.00000000E+00 0.00000000E+00 0.00000000E+00 2.36489132E-02-1.26411615E-02
 9 16 0.00000000E+00 0.00000000E+00 0.00000000E+00 0.00000000E+00 9.10144613E-03
 9 17 0.00000000E+00 0.00000000E+00 0.00000000E+00-1.31997483E-02
10  1 0.00000000E+00 0.00000000E+00 0.00000000E+00 0.00000000E+00 0.00000000E+00
10  2 1.92316617E-01 0.00000000E+00 0.00000000E+00 9.84023446E-02 0.00000000E+00
10  3 0.00000000E+00 0.00000000E+00 0.00000000E+00 5.34908493E-02 1.18818760E-02
10  4 0.00000000E+00 0.00000000E+00 0.00000000E+00 6.47594169E-03 0.00000000E+00
10  5 0.00000000E+00 0.00000000E+00 0.00000000E+00-2.34204023E-04-2.61190975E-03
10  6 0.00000000E+00 0.00000000E+00 0.00000000E+00 0.00000000E+00 0.00000000E+00
10  7 4.78661719E-01 0.00000000E+00 0.00000000E+00 3.20555284E-01 0.00000000E+00
10  8 0.00000000E+00 0.00000000E+00 0.00000000E+00-1.54937580E-02-9.88649700E-03
10  9 0.00000000E+00 0.00000000E+00 0.00000000E+00 4.18514286E-02 0.00000000E+00
10 10 0.00000000E+00 0.00000000E+00 0.00000000E+00-1.80424631E-02-1.10985901E-02
10 11 0.00000000E+00 0.00000000E+00 0.00000000E+00 0.00000000E+00 0.00000000E+00
10 12-4.03137519E-01 0.00000000E+00 0.00000000E+00-2.91743045E-01 0.00000000E+00
10 13 0.00000000E+00 0.00000000E+00 0.00000000E+00-3.77870307E-03 2.65365956E-03
10 14 0.00000000E+00 0.00000000E+00 0.00000000E+00-4.86505908E-02 0.00000000E+00
10 15 0.00000000E+00 0.00000000E+00 0.00000000E+00-7.03360664E-03 6.77219048E-03
10 16 0.00000000E+00 0.00000000E+00 0.00000000E+00 0.00000000E+00 5.55942007E-03
10 17 0.00000000E+00 0.00000000E+00 0.00000000E+00-1.00855977E-03
11  1 6.55935870E-03 2.10935580E-02 4.31034214E-02 1.14926526E-02-1.16740057E-01
11  2 0.00000000E+00 3.77988042E-03-3.91937002E-02 0.00000000E+00-7.58312270E-02
11  3 6.78636711E-02 7.96755589E-03 3.11456858E-02 0.00000000E+00 0.00000000E+00
11  4 6.32789207E-03 9.17761795E-03-1.97369334E-02 0.00000000E+00-2.20316702E-02
11  5 2.33104242E-02-1.27875404E-03-1.08577431E-03 0.00000000E+00 0.00000000E+00
11  6-4.21425529E-04-1.45165457E-02-7.76797853E-03-2.45942889E-01 5.03437401E-01
11  7 0.00000000E+00-1.79941836E-01 3.34409249E-01 0.00000000E+00 6.91582884E-03
11  8-7.66076063E-03 7.44931790E-04-7.02830599E-03 0.00000000E+00 0.00000000E+00
11  9 2.65400245E-02-4.57924885E-02 6.80643782E-02 0.00000000E+00 9.37862439E-03
11 10-5.80447365E-03-3.57415074E-03-2.10547764E-03 0.00000000E+00 0.00000000E+00
11 11 3.00009805E-03-2.81898095E-02-2.18794561E-02-1.55964497E-01 1.74011475E-01
11 12 0.00000000E+00-9.58101007E-02 1.04524274E-01 0.00000000E+00-2.57200687E-03
11 13 1.04026113E-03 1.53174574E-03 4.09014603E-03 0.00000000E+00 0.00000000E+00
11 14 2.50643956E-02-1.07947382E-02 1.61080803E-02 0.00000000E+00-3.87686892E-03
11 15 5.80292415E-03-1.92605523E-03-1.09589375E-03 0.00000000E+00 0.00000000E+00
11 16 2.18851138E-01 1.28850465E-01 1.94653043E-03 7.37371327E-03 0.00000000E+00
11 17 3.49602593E-03-2.13736745E-02-7.87973757E-04 0.00000000E+00
12  1-5.19769269E-04 7.64369287E-03 4.59137035E-02-2.17031459E-02-5.43592693E-02
12  2-0.00000000E+00-2.57768107E-02-7.94141329E-02-0.00000000E+00-2.29873172E-02
12  3 2.15463963E-02 1.44092092E-03-3.46655533E-02-0.00000000E+00-0.00000000E+00
12  4-1.72725970E-02-3.13943785E-03-5.29686733E-03-0.00000000E+00 1.04675625E-02
12  5-1.33418767E-02 2.87431415E-03 4.76676115E-02-0.00000000E+00-0.00000000E+00
12  6 4.45389475E-05-1.99040683E-02-9.00628413E-03 2.02627021E-01-7.30479261E-02
12  7-0.00000000E+00 9.74944510E-02-4.71684674E-02-0.00000000E+00-5.89561671E-03
12  8 4.05468906E-03 1.84092765E-03-1.77933978E-03-0.00000000E+00-0.00000000E+00
12  9 2.50869111E-02 3.88109641E-04-3.92481138E-03-0.00000000E+00-5.73753483E-03
12 10 7.51231560E-03-1.77478077E-03 1.86251636E-03-0.00000000E+00-0.00000000E+00
12 11-3.01225802E-04 2.01831067E-03 1.54659775E-02 3.43623482E-01 5.69305158E-01
12 12-0.00000000E+00 2.29084548E-01 3.87276305E-01-0.00000000E+00 9.76148393E-03
12 13-9.20638793E-03-5.55095999E-04 6.40943852E-03-0.00000000E+00-0.00000000E+00
12 14 1.75228935E-02 2.07137734E-02 2.82709804E-02-0.00000000E+00 2.07515657E-02
12 15-2.21425765E-02 1.39101086E-03 1.41288301E-02-0.00000000E+00-0.00000000E+00
12 16 7.91724150E-02-1.35908356E-02-1.96407443E-03 1.21437269E-03-0.00000000E+00
12 17 4.27874112E-03 4.26347739E-02-2.17188576E-02-0.00000000E+00
13  1-0.00000000E+00-0.00000000E+00-0.00000000E+00-0.00000000E+00-0.00000000E+00
13  2-5.99875396E-01-0.00000000E+00-0.00000000E+00-2.77374644E-01-0.00000000E+00
13  3-0.00000000E+00-0.00000000E+00-0.00000000E+00-1.43291963E-02-2.61755037E-02
13  4-0.00000000E+00-0.00000000E+00-0.00000000E+00 8.36414340E-03-0.00000000E+00
13  5-0.00000000E+00-0.00000000E+00-0.00000000E+00-1.85333484E-02-3.24414959E-03
13  6-0.00000000E+00-0.00000000E+00-0.00000000E+00-0.00000000E+00-0.00000000E+00
13  7 6.40674442E-01-0.00000000E+00-0.00000000E+00 6.40072804E-02-0.00000000E+00
13  8-0.00000000E+00-0.00000000E+00-0.00000000E+00 6.00415953E-03 2.27537227E-03
13  9-0.00000000E+00-0.00000000E+00-0.00000000E+00-3.36774437E-02-0.00000000E+00
13 10-0.00000000E+00-0.00000000E+00-0.00000000E+00 3.21181106E-02 8.53063290E-03
13 11-0.00000000E+00-0.00000000E+00-0.00000000E+00-0.00000000E+00-0.00000000E+00
13 12 3.16995566E-01-0.00000000E+00-0.00000000E+00 6.40695374E-02-0.00000000E+00
13 13-0.00000000E+00-0.00000000E+00-0.00000000E+00-8.34778789E-03 5.75303809E-04
13 14-0.00000000E+00-0.00000000E+00-0.00000000E+00-6.68831736E-04-0.00000000E+00
13 15-0.00000000E+00-0.00000000E+00-0.00000000E+00-2.29537711E-02 6.45463484E-03
13 16-0.00000000E+00-0.00000000E+00-0.00000000E+00-0.00000000E+00-1.75694994E-02
13 17-0.00000000E+00-0.00000000E+00-0.00000000E+00 1.05757389E-02
14  1-9.30635633E-02-4.77749770E-01-4.28759228E-01 4.88828973E-01-3.60898715E-01
14  2 0.00000000E+00 1.36195746E-01-9.22887668E-02 0.00000000E+00-2.77985337E-02
14  3 1.48730197E-02 1.29255140E-02 2.40398208E-02 0.00000000E+00 0.00000000E+00
14  4-9.86550340E-02 9.94100509E-04 8.29967673E-03 0.00000000E+00-2.21080618E-02
14  5 4.72742225E-03 1.73806396E-02 2.09033370E-02 0.00000000E+00 0.00000000E+00
14  6 9.38223365E-03 6.37999154E-02 7.80856992E-02-3.11035076E-01 1.64161448E-01
14  7 0.00000000E+00 1.36413134E-03-6.67407574E-02 0.00000000E+00-8.27705174E-03
14  8 1.09032130E-02-2.62616122E-03 1.15206381E-02 0.00000000E+00 0.00000000E+00
14  9 1.93839357E-02 2.13562357E-02-2.44063622E-02 0.00000000E+00-3.54256659E-02
14 10 3.37970958E-02 1.62857009E-03 1.46256305E-02 0.00000000E+00 0.00000000E+00
14 11 6.23950766E-02 2.93885733E-01 2.89836773E-01 6.29656059E-01-3.06736317E-01
14 12 0.00000000E+00 1.26290286E-01-2.24504722E-02 0.00000000E+00-7.85047105E-03
14 13 1.79798646E-02-1.01293935E-02 1.86371934E-02 0.00000000E+00 0.00000000E+00
14 14 1.37878856E-01 1.95651989E-02-4.73534506E-03 0.00000000E+00-2.01552544E-02
14 15 1.05753461E-02 9.57990838E-03 2.64649038E-02 0.00000000E+00 0.00000000E+00
14 16 8.73251172E-02 9.64335506E-02 1.39899768E-02 4.68830034E-03 0.00000000E+00
14 17 2.02936426E-02 1.28446440E-02 3.55825856E-02 0.00000000E+00
15  1 1.14232272E-01 4.80154737E-01 2.57692441E-01 2.90127265E-01 9.60313650E-02
15  2 0.00000000E+00 9.09041787E-02 6.26745422E-02 0.00000000E+00 1.79351401E-01
15  3-1.72450288E-01-6.90111305E-03-5.46647723E-02 0.00000000E+00 0.00000000E+00
15  4 4.83544076E-02-2.02507719E-02 5.64467097E-02 0.00000000E+00 8.09644490E-02
15  5-7.96836507E-02-1.28079830E-03 1.64393321E-02 0.00000000E+00 0.00000000E+00
15  6-1.98054366E-02-1.20319286E-01-2.62364954E-01 1.04475114E-01 8.32408343E-01
15  7 0.00000000E+00 2.31726905E-01-3.63075310E-01 0.00000000E+00-2.22616863E-02
15  8 2.30800527E-02-8.18366366E-04 1.03413089E-02 0.00000000E+00 0.00000000E+00
15  9-2.11156045E-01 1.09550553E-01-1.36508080E-01 0.00000000E+00-4.81371934E-02
15 10 4.95604942E-02-1.42330072E-03 6.57347266E-02 0.00000000E+00 0.00000000E+00
15 11-1.99322906E-03 7.47008725E-03-1.18544465E-02-8.62702312E-02 1.40038771E-01
15 12 0.00000000E+00 2.83841817E-02-9.41079059E-03 0.00000000E+00-2.75117649E-03
15 13-6.13595963E-03 8.88713612E-03-1.19579788E-02 0.00000000E+00 0.00000000E+00
15 14-7.36394298E-02 2.05989210E-02-2.32952210E-02 0.00000000E+00 1.05621640E-02
15 15-1.81058032E-02 7.54363918E-03-7.28906126E-03 0.00000000E+00 0.00000000E+00
15 16-2.01517289E-01-1.48701581E-01 7.96119980E-03 1.97616011E-02 0.00000000E+00
15 17-4.51174535E-03 5.73627674E-02 1.96430130E-02 0.00000000E+00
16  1 2.41405176E-02 1.33165827E-01 2.20647373E-01 7.05901883E-01 3.46073064E-01
16  2 0.00000000E+00 2.47318765E-01 1.00039467E-01 0.00000000E+00-1.46382749E-01
16  3 1.34326304E-01 1.20564449E-02 9.23428605E-02 0.00000000E+00 0.00000000E+00
16  4 8.94362219E-02 3.76511030E-02-4.01213069E-02 0.00000000E+00-3.94844475E-02
16  5 4.69181131E-02-7.43366557E-03 2.12683244E-02 0.00000000E+00 0.00000000E+00
16  6-9.50422113E-02-3.49838337E-01-2.64099504E-01 7.39533041E-01-2.39478022E-03
16  7 0.00000000E+00-8.97862393E-02 2.59689986E-01 0.00000000E+00 1.44965491E-02
16  8-8.94308268E-03-5.55346642E-03-1.76312926E-03 0.00000000E+00 0.00000000E+00
16  9-1.55502055E-01-4.10667527E-02 1.06859734E-01 0.00000000E+00 5.00392716E-02
16 10-2.47458188E-02-2.52934528E-02-9.98133704E-03 0.00000000E+00 0.00000000E+00
16 11 2.39570825E-02 6.92527950E-02 7.61313370E-02 1.10162647E-01-3.45423366E-01
16 12 0.00000000E+00-3.77362775E-02-4.10035918E-03 0.00000000E+00 1.09915921E-02
16 13-8.21265518E-04-1.01703266E-02 3.23640283E-02 0.00000000E+00 0.00000000E+00
16 14 1.08768268E-01-3.38357388E-03 1.57942550E-02 0.00000000E+00 1.80865830E-04
16 15-1.58671701E-03 1.40585118E-03 2.86414626E-02 0.00000000E+00 0.00000000E+00
16 16 9.65563005E-02 4.94916932E-02 2.06365246E-02-1.24452669E-02 0.00000000E+00
16 17-2.59947817E-02-2.93606797E-02-2.64175739E-02 0.00000000E+00
17  1-1.68559188E-02-1.73679494E-02 6.52697659E-01 1.16586305E-02-4.83164808E-02
17  2 0.00000000E+00 5.64518860E-02-1.05399299E-01 0.00000000E+00 1.16046015E-03
17  3 7.52096085E-03-8.68142100E-03 3.21318105E-03 0.00000000E+00 0.00000000E+00
17  4 4.43487387E+00 1.43300631E-01-9.66017715E-01 0.00000000E+00 4.31844700E-02
17  5 5.61781446E-02-9.93626145E-02 1.59468300E-02 0.00000000E+00 0.00000000E+00
17  6 5.08253422E-03 1.99596101E-02-5.23974942E-02 1.70106137E-02-2.29611824E-02
17  7 0.00000000E+00 5.88560254E-02 2.99040971E-02 0.00000000E+00-8.92081933E-04
17  8 1.87824770E-03-9.86165771E-04 1.26784279E-03 0.00000000E+00 0.00000000E+00
17  9-8.90710914E-01 1.79992030E-01 4.18085141E-01 0.00000000E+00-4.46292971E-03
17 10-7.38561482E-03 1.18485445E-02-1.58804978E-02 0.00000000E+00 0.00000000E+00
17 11 4.21907292E-03 1.67865090E-02-1.63865519E-02-4.14550764E-03-1.18235192E-02
17 12 0.00000000E+00-4.67404298E-02 9.86146859E-03 0.00000000E+00-8.24349930E-04
17 13 2.15325230E-03-1.32890237E-03-4.20007575E-04 0.00000000E+00 0.00000000E+00
17 14-6.37580486E-01-2.26852450E-01 3.10502590E-01 0.00000000E+00-9.31735270E-03
17 15-2.59563755E-03 1.19129902E-02 1.59767418E-02 0.00000000E+00 0.00000000E+00
17 16 4.99059081E-02-5.95520216E-01-2.49346832E-03-1.37492207E-03 0.00000000E+00
17 17-3.65366714E+00 1.91092874E-02-1.53230950E-01 0.00000000E+00
18  1-2.08693376E-03-1.36437612E-02-2.13131440E-01-3.89484139E-03 2.04304673E-02
18  2 0.00000000E+00-5.34894727E-01-5.74653847E-01 0.00000000E+00-1.20547584E-02
18  3 3.53186518E-03 8.52289323E-03-1.85926858E-02 0.00000000E+00 0.00000000E+00
18  4-1.25244691E+00-1.66650229E+00-1.44764837E+00 0.00000000E+00-7.13327471E-02
18  5 4.74038116E-02 2.39289355E-02-1.81594398E-01 0.00000000E+00 0.00000000E+00
18  6-9.01379192E-03 2.90691275E-02 3.37213969E-01 4.61308655E-02 1.91778773E-02
18  7 0.00000000E+00-1.72908236E-01-9.92932825E-02 0.00000000E+00 3.08100303E-03
18  8 6.08061264E-04-3.68906429E-03 2.74245732E-03 0.00000000E+00 0.00000000E+00
18  9 2.86262291E+00-2.84897502E-01-1.22965024E-01 0.00000000E+00 1.75459357E-02
18 10-1.33040912E-02-4.24184452E-03 1.80482134E-02 0.00000000E+00 0.00000000E+00
18 11 5.89255190E-04 1.09957833E-03-4.67447807E-02 2.86909986E-02 3.25398186E-02
18 12 0.00000000E+00 8.49363005E-03 3.34247642E-02 0.00000000E+00-8.43256149E-04
18 13-8.73563562E-05 9.30612505E-04 2.54478126E-04 0.00000000E+00 0.00000000E+00
18 14-4.33006745E-01 1.15361218E-01 3.56998065E-01 0.00000000E+00 2.17644975E-02
18 15-8.28615702E-03-1.34783405E-02 7.21077040E-03 0.00000000E+00 0.00000000E+00
18 16-6.49928551E-04-8.34254622E-01-6.09906309E-03-3.95418682E-03 0.00000000E+00
18 17-4.04847447E-01 4.37301674E-02-2.04918440E-01 0.00000000E+00
19  1 0.00000000E+00 0.00000000E+00 0.00000000E+00 0.00000000E+00 0.00000000E+00
19  2-1.13320308E-01 0.00000000E+00 0.00000000E+00-1.05392927E-01 0.00000000E+00
19  3 0.00000000E+00 0.00000000E+00 0.00000000E+00-9.26663938E-04-1.15901551E-02
19  4 0.00000000E+00 0.00000000E+00 0.00000000E+00 1.83887340E+00 0.00000000E+00
19  5 0.00000000E+00 0.00000000E+00 0.00000000E+00 1.80023467E-02-2.70835824E-03
19  6 0.00000000E+00 0.00000000E+00 0.00000000E+00 0.00000000E+00 0.00000000E+00
19  7-1.25823303E-02 0.00000000E+00 0.00000000E+00 3.27242198E-02 0.00000000E+00
19  8 0.00000000E+00 0.00000000E+00 0.00000000E+00 2.99383186E-03 6.33377501E-04
19  9 0.00000000E+00 0.00000000E+00 0.00000000E+00-6.02948906E-01 0.00000000E+00
19 10 0.00000000E+00 0.00000000E+00 0.00000000E+00 1.06154428E-02 8.79413404E-03
19 11 0.00000000E+00 0.00000000E+00 0.00000000E+00 0.00000000E+00 0.00000000E+00
19 12-2.78998385E-02 0.00000000E+00 0.00000000E+00 1.86191082E-02 0.00000000E+00
19 13 0.00000000E+00 0.00000000E+00 0.00000000E+00-3.49413836E-03 7.30041384E-04
19 14 0.00000000E+00 0.00000000E+00 0.00000000E+00-4.65761494E-01 0.00000000E+00
19 15 0.00000000E+00 0.00000000E+00 0.00000000E+00-7.45998622E-03 3.48177247E-03
19 16 0.00000000E+00 0.00000000E+00 0.00000000E+00 0.00000000E+00 9.93850601E-03
19 17 0.00000000E+00 0.00000000E+00 0.00000000E+00-1.13800458E-01
20  1-4.10230024E-04-2.50805561E-02-2.05671860E-01-4.08345897E-05 7.06160327E-02
20  2-0.00000000E+00 5.35710581E-01-5.50111990E-01-0.00000000E+00-2.49223887E-02
20  3 1.60108096E-02 8.91157912E-03 1.80743059E-02-0.00000000E+00-0.00000000E+00
20  4-1.11050341E+00 1.57600089E+00-1.79044707E+00-0.00000000E+00-5.71966175E-02
20  5 2.59374949E-02 3.12591226E-02 1.12191224E-01-0.00000000E+00-0.00000000E+00
20  6-1.26679641E-03 1.61986508E-03-2.92198576E-02 1.10920028E-02-1.54453023E-02
20  7-0.00000000E+00-3.50073179E-02 6.50393978E-03-0.00000000E+00-1.10815991E-03
20  8 9.37605253E-04 1.70554661E-04 6.03783298E-04-0.00000000E+00-0.00000000E+00
20  9 2.13167084E-03-3.43095308E-01 6.10227346E-01-0.00000000E+00 4.66233356E-02
20 10-2.83049629E-02-1.83183727E-02-1.29534923E-02-0.00000000E+00-0.00000000E+00
20 11-6.49929112E-03 2.75794941E-02 2.21378134E-01-6.37637301E-02 3.24645626E-03
20 12-0.00000000E+00 1.65047740E-01-8.63937898E-02-0.00000000E+00 6.42231100E-04
20 13 1.37924902E-03-2.02148012E-03 1.41305094E-03-0.00000000E+00-0.00000000E+00
20 14 2.65359290E+00 4.87827853E-01-2.24909528E-02-0.00000000E+00 5.02399323E-02
20 15-2.78882300E-02-2.23517023E-02-1.91792818E-02-0.00000000E+00-0.00000000E+00
20 16 3.79931877E-02-7.68913315E-01 2.80925388E-03-9.92663971E-03-0.00000000E+00
20 17-7.76543871E-01-2.17953097E-02-2.75073837E-01-0.00000000E+00
21  1-4.88227301E-02-1.34135705E-01 1.88700148E+00-2.68934033E-03 1.23794045E-01
21  2 0.00000000E+00 1.11600033E-01-4.17540403E-01 0.00000000E+00 7.30744186E-04
21  3-3.65232924E-04-3.65511261E-04-2.67056436E-03 0.00000000E+00 0.00000000E+00
21  4 9.77029718E+00 2.36868012E-01-2.00769800E+00 0.00000000E+00-1.27019976E-01
21  5 3.42580393E-01-2.15560418E-01-6.06260620E-02 0.00000000E+00 0.00000000E+00
21  6 4.08186948E-03-1.84222069E-02-1.03576157E-01-3.78089226E-02 2.13287968E-02
21  7 0.00000000E+00 1.33035957E-01 4.21709787E-02 0.00000000E+00 4.28109589E-03
21  8-3.45326889E-03-8.27826998E-04-1.67454282E-03 0.00000000E+00 0.00000000E+00
21  9-2.43253674E+00 5.74872994E-01 3.85973783E-01 0.00000000E+00-4.75710831E-02
21 10 1.70493378E-03 4.58661493E-02-2.38684525E-02 0.00000000E+00 0.00000000E+00
21 11 1.49627968E-03-2.19476601E-02-7.24758533E-02 2.47946217E-02 2.43391927E-02
21 12 0.00000000E+00-9.50872169E-02 2.28215883E-02 0.00000000E+00 3.55094002E-03
21 13-3.22009355E-03-3.30846466E-04 2.06227786E-03 0.00000000E+00 0.00000000E+00
21 14-1.96338259E+00-5.68888482E-01 3.60545232E-01 0.00000000E+00-4.92251996E-02
21 15 8.47442374E-03 4.07507759E-02 1.19848877E-02 0.00000000E+00 0.00000000E+00
21 16-9.98666598E-02-3.04052109E+00 3.32984770E-03-3.78813261E-02 0.00000000E+00
21 17-4.59946170E+00 8.24763074E-02-5.32673585E-01 0.00000000E+00
22  1 4.34778033E-03 1.56923032E-02 7.34187137E-02 1.12128243E-01-4.68642733E-02
22  2-0.00000000E+00 8.23786972E-01-2.09925667E-01-0.00000000E+00-4.44022034E-03
22  3-4.65542894E-03 9.09564928E-03 2.44401141E-02-0.00000000E+00-0.00000000E+00
22  4-5.47812450E-01-7.98383376E-01 5.86888897E-01-0.00000000E+00-3.50507815E-02
22  5 5.17618775E-02-1.67110960E-02-1.97656466E-01-0.00000000E+00-0.00000000E+00
22  6 4.38239002E-03-1.37859081E-02-1.02472577E-01-7.49411505E-03-1.50602430E-02
22  7-0.00000000E+00 4.98468450E-02 6.40713355E-02-0.00000000E+00-3.28386672E-04
22  8 6.26862016E-03-5.94023349E-03 9.59078339E-03-0.00000000E+00-0.00000000E+00
22  9-1.47430654E+00 1.31897979E+00 5.62494300E-01-0.00000000E+00-1.38744186E-02
22 10-2.59947220E-02 3.98691406E-02-3.40149966E-02-0.00000000E+00-0.00000000E+00
22 11-8.13918013E-03 1.97685163E-02 1.74119962E-01-1.51630903E-02 7.10795549E-02